96
Lattice="12.299111366271973 0.0 0.0 0.397482693195343 12.292691230773926 0.0 0.0 0.0 12.580405235290527" Properties=species:S:1:pos:R:3:initial_charges:R:1:energies:R:1:forces:R:3 original_dataset_index=131 energy=-58459.38903507283 pbc="F F F"
Pb       9.82524490       9.83604622      12.32313061      -0.14069973    -606.08778575       0.56715577      -0.98641411      -0.19237711
Pb       2.43818855       2.69569850      12.25700092      -0.12461311    -605.86624526       0.59724639       0.05187387      -0.08843804
Pb       3.81715274       8.55459976      12.61007977      -0.13260570    -605.96092055       0.22685401       0.63483934      -0.27296555
Pb       8.67093277       3.47859192      13.01590347      -0.12328611    -605.79655948       0.09309611       0.26531418       0.07624390
Pb       9.40203190       8.77341175       6.13023138      -0.13240421    -606.00043162       0.64292735      -0.24360026       0.32271668
Pb       2.81321645       3.15379286       5.99346876      -0.14125794    -606.15690545       0.31721813       0.28610770       0.60140050
Pb       9.49250698       2.56456232       6.61268520      -0.11009561    -605.47921262       0.25950828       0.98145648      -1.23992252
Pb       3.27812719       9.71390915       6.42654991      -0.14316374    -606.13635431       0.58979228      -0.18885284       0.15924332
I       10.38946915       8.37764645       9.25278664       0.07963723    -608.40111409       0.00435351       0.07630758      -0.34313985
I        3.66762853       2.99036860       9.11249447       0.07474938    -608.33013018      -0.34761648       0.32215854       0.75654730
I        9.14048290       2.92346478       3.48566413       0.08159118    -608.51413735       0.13065785      -0.33317876      -0.12097338
I        4.52933502       9.23377228       3.05600548       0.09839024    -608.53105804       0.25395686      -0.28737695       0.24867601
I        2.38593531       3.60224223       3.08508420       0.08402897    -608.52829805      -0.04082043      -0.24795497      -0.43044064
I        9.68054771       9.34273624       2.84980369       0.09220232    -608.56896849       0.19653777       0.09117118       0.26598797
I        3.24458814       9.82108688       9.47772694       0.07641574    -608.38414641      -0.19084652      -0.37731341      -0.18973521
I        9.57128906       3.07753897       9.55733585       0.13040288    -608.84524533       1.19662239      -0.80408726       1.22620050
I       -0.57224220       2.30891085      12.75160313       0.08709428    -608.52221009       0.19771912      -0.05049544      -0.25132118
I        6.93288851       8.50600338      12.39146709       0.08273214    -608.48333995      -0.62493908       0.15207151      -0.01342227
I        9.94992924       6.22855186      -0.35166863       0.06686484    -608.29468122       0.16131296      -0.38609270       0.44788040
I        3.91640234      11.83935642       0.25568226       0.08254182    -608.40640292       0.18191869       0.66728080      -0.43407117
I       12.69542599      10.09473896       5.96590185       0.09233861    -608.50814417      -0.80472534      -0.43585438       0.15097149
I        6.29181051       4.10250854       6.44254589       0.09273418    -608.55431231       0.35044291      -0.47398494       0.29295371
I        2.76285672       6.80379772       5.87538099       0.08020990    -608.41587409       0.03817543      -0.77607086       0.30606626
I        7.92837238      -0.06629852       6.28553486       0.15414023    -609.11392376       0.46766859      -0.25492250       1.20707076
I       12.88203621      10.34626579      -0.14359739       0.06894197    -608.27557032      -0.44594472      -0.54861109       0.24688427
I        5.51595020       3.61187816       0.04545531       0.08159184    -608.51305806       0.49304534       0.02803983       0.37845678
I        2.34889770       5.96644306      12.79578304       0.07486503    -608.33244474      -0.26854141      -0.38964510      -0.11303896
I        8.49991894       0.30174553      12.73262501       0.10449237    -608.68260992      -0.44279935       0.39175411      -0.06717596
I        0.40666506       1.38726151       6.62868309       0.08881634    -608.48410091      -0.67552910       0.70663305       0.20066371
I        6.58853436       8.49541950       6.99947405       0.08399728    -608.49666281      -0.25696398      -0.07783132      -0.13849773
I       10.60311890       5.88535404       6.00986528       0.08546942    -608.51404217      -0.16996429      -0.08216900       0.01520572
I        4.53859949      12.65927696       6.40191650       0.08764266    -608.51379977       0.08653115      -0.01396149      -0.62092082
N        6.21955442       5.76151228       3.59527683       0.04702105    -610.37257473      -1.91352176      -2.88361759      -1.93958803
N       12.48774624      12.37514400       3.61804318       0.04963218    -610.46061571       0.24999870      -2.07737134       0.01576643
N        1.53275084       5.86817265       9.59680271       0.00720879    -610.53173776       0.12440175       2.85920497      -0.28500270
N        5.09940577       0.08936651       9.60910702       0.04589707    -610.49905569      -0.70836418      -2.44110027      -1.04452153
N        8.04089642       5.94069433       8.87892437       0.04607700    -610.51913871      -0.97614177      -1.45931583       1.75272197
N       -0.22647615       0.02268569       9.81411934       0.01052451    -610.43473426      -2.99083304       1.31862851      -2.10898111
N       12.78193569       6.94178343       3.24284506       0.04900614    -610.42213953       0.38836339      -0.60141968       3.12838992
N        6.79435158      11.61831570       2.66576719       0.04610463    -610.37929604       2.55851968      -1.53406063       1.03238270
C        6.88727283       5.85974264       9.86231422      -0.16839729    -610.13125034       1.50774064       0.09743537       0.14684839
C       11.08976841      11.80558205       9.35296535      -0.15862724    -609.87411134       1.54866095       3.95619166       2.55849239
C        1.46244645       7.99060202       2.88384128      -0.16557743    -610.04068579       0.05616422      -0.65047116      -1.94773427
C        5.51966095       0.49955654       2.97361469      -0.16123898    -610.03277193      -0.89219924      -0.48183364       2.60493364
C        7.47814035       6.22642899       2.94929886      -0.16604958    -610.08803330      -1.64715503       0.48488272      -2.04428599
C        1.16672432      -0.26360416       3.07338309      -0.16622947    -610.13560832      -2.47827461       0.97712113      -2.41521827
C       12.76574039       4.92324114       9.79521084      -0.16432045    -609.90014113      -0.96210226      -0.89495538       0.61988317
C        6.59815598      11.34485340       9.81645870      -0.16311523    -610.05083463      -3.18798116      -1.56542479       1.24996896
H       12.39805603       4.80489731      10.87113857      -0.00363458    -609.17942111      -0.04937380       1.11330186      -1.25790538
H        6.41574907      10.44985962       9.17563915      -0.00327510    -609.36162103       0.20146383       0.92786922      -0.06451986
H       11.95327282       5.16373301       9.01967716      -0.00023120    -609.24242128       0.27206569      -0.90583000       1.20460636
H        7.48912430      11.82840347       9.68757153      -0.00337275    -609.18166245       2.53746866       0.94782525      -0.49407103
H        0.87854850       3.85907674       9.70113945      -0.00206977    -609.19907454      -0.28699866       1.01524821      -0.75028506
H        6.50005484      10.90280056      10.86339951      -0.00338835    -609.39089344       0.19128383       0.95169064      -0.96346936
H        1.21100545       8.14118481       1.79317546      -0.00235249    -609.38811994       0.72568376       0.53676536       0.96081272
H        4.48271227       0.15577738       2.80136919      -0.00233427    -609.29482937       0.38347432       0.53306584      -0.15706479
H        2.45145869       7.49256849       3.02231121      -0.00284865    -609.32014650      -0.68633191       0.50531768      -0.25724968
H        5.80581903       1.37785280       2.44588757      -0.00354973    -609.23403545       0.15171491       0.49802796      -1.05574727
H       13.75239849       8.89363289       3.49001217      -0.00510976    -609.24469370      -0.60403221      -0.05974070       0.04890724
H        5.54064178       0.84442639       4.11666727      -0.00077604    -609.34818823       0.43347260      -1.13361928      -2.07972022
H        9.21869850      12.32051277       7.86017179      -0.00785716    -608.10460378      -0.35478319      -0.20886844      -0.74910812
H        4.30301666      -0.18886031      10.23651600      -0.00165482    -609.44092009       0.08700200       0.08684559      -0.69682000
H        1.70083213       5.82029629       8.58062267       0.00026813    -609.16869238       0.48261294       0.37122393       0.31851440
H        5.27968550       1.02544165       9.84384918       0.00095603    -609.39824109       1.09459816       1.95588969       0.98830431
H        1.29209781       6.95349979       9.77533722       0.00078249    -609.16213822       0.24020365      -3.14534546      -0.28141227
H        4.77945900       0.23127243       8.55581188      -0.00003520    -609.42301694       0.22841918      -0.82267963       1.50812095
H       12.62903595       6.99910688       4.35114861      -0.00081870    -609.42152068       0.68650099      -1.07475887      -2.13342684
H        7.23389959      11.24862289       3.60582662       0.00014816    -609.49316632      -0.64060279       0.76120905      -2.14029663
H        0.87560630       6.04853153       2.84070516      -0.00050512    -609.40515874      -0.18272560       0.23928564       1.05635395
H        7.66428423      11.84261608       1.97154319      -0.00002513    -609.40793103      -1.78456303      -0.23296809       1.34503470
H       11.84349442       6.95388603       2.90417051       0.00118929    -609.45659305      -1.17444556       0.89177846      -0.90137785
H        6.33419371      10.67595959       2.30513000      -0.00066396    -609.40841405       0.08429015       1.93008659       0.42064948
H       -1.01326466       2.38264942      10.17499733      -0.00665112    -608.09619775      -1.28341314       0.26067644       0.19948789
H        8.53142548       6.80492115       8.90227509      -0.00083453    -609.42797382       0.37842462       2.05804422      -0.01097944
H        8.80945015       5.31548929       9.23838997      -0.00007639    -609.41992061      -0.74221671       0.07547648      -0.56082558
H        0.68110657      11.58677769      10.19036007       0.00201492    -609.00550887       2.06624922      -1.65008728       0.88490050
H        0.12676583       0.56838530       9.04281139       0.00115252    -609.07049776       1.15476636      -0.48217275      -0.09863638
H        7.74793291       5.73009872       7.93536425      -0.00054737    -609.43206798      -0.11537830      -0.45173519      -0.90474358
H        5.98650885       6.38123274       9.65149975      -0.00333506    -609.33722540      -0.50416898       0.67145254      -0.97821275
H       10.43714523       0.58634996       9.00986862       0.00447972    -609.12673497      -1.08796838      -2.07018501      -0.60707106
H        7.27931070       6.23093033      10.78019142      -0.00226905    -609.33974234       0.38141389       0.69616712       0.77677190
H       10.67213345      11.76964569      10.38109016       0.00036377    -609.21778945      -0.92039661      -0.50139564      -0.62330638
H        6.66065025       4.86126947      10.12200165      -0.00283134    -609.34806813      -0.26206706      -1.50473314      -0.43715615
H       10.94748592      10.87393188       8.82109261      -0.00375920    -608.97905288       0.17497687       0.09094039      -0.66679221
H        7.25039291       6.88162899       2.02025485      -0.00269678    -609.38866649       0.15738246      -1.28053601       1.10912654
H        1.75477493      -0.70785558       3.80001926      -0.00530700    -609.24996476       1.18308100      -0.72294741       1.47059615
H        8.09551811       5.37012339       2.71805453      -0.00316199    -609.28191519       0.24818847      -0.08174565      -0.04025968
H        1.88706911      12.98698330       2.70363975      -0.00236459    -609.37856790       0.89485980       0.33586641       0.01587731
H        7.94838333       6.89054775       3.60107160      -0.00239865    -609.23778013       1.03929788       0.90140102       1.39888141
H        1.00185406      -0.88270730       2.15500426      -0.00298459    -609.39361351       0.21266089       0.10609905       0.86845719
H       11.93695927      12.78746223       2.89176035      -0.00029856    -609.48270154      -0.77502274       0.11199511      -1.14696220
H        6.35894489       5.20089912       4.55409861       0.00090607    -609.35493299      -0.09173470       1.19807243      -0.91618994
H       12.58444309      13.14914131       4.29473019       0.00007208    -609.38652118      -0.10191451      -0.56608918       0.81250930
H        5.69729662       4.89546967       2.92603374      -0.00044871    -609.42084004       1.45598503       3.03239954       1.81062755
H        5.54302883       6.56953335       3.66327167      -0.00021153    -609.40332504       0.35514844      -0.82519009       0.22638841
H       11.62479496      -0.85278428       3.98536301       0.00066602    -609.39162988       0.68412172       2.11612057      -0.16210375
96
Lattice="12.299111366271973 0.0 0.0 0.397482693195343 12.292691230773926 0.0 0.0 0.0 12.580405235290527" Properties=species:S:1:pos:R:3:initial_charges:R:1:energies:R:1:forces:R:3 original_dataset_index=6 energy=-58471.07171196574 pbc="F F F"
Pb       9.56144905       9.19034767      12.55600262      -0.14492480    -606.25181150      -0.02451787       0.12385885       0.02422870
Pb       3.14867425       3.02238917      12.52250195      -0.14737487    -606.28931657       0.04923134       0.11319712       0.16741711
Pb       3.42843986       9.16742039      12.59149933      -0.14246707    -606.21881424      -0.07486167       0.01731538      -0.03253554
Pb       9.31008148       3.10903597      12.60432816      -0.14860168    -606.28648511      -0.04398272      -0.10037840      -0.01918021
Pb       9.55211067       9.19624138       6.29261827      -0.14415048    -606.24897193      -0.02728185      -0.01678872      -0.01951053
Pb       3.16682458       3.07182074       6.28850651      -0.14547096    -606.27910558       0.04886247      -0.07935759      -0.08311470
Pb       9.33240795       3.02145624       6.28896999      -0.14058438    -606.20105618       0.02031128       0.08060002      -0.00689080
Pb       3.39942646       9.21718884       6.26132202      -0.14227927    -606.23559253      -0.03606684       0.09205833       0.10634193
I        9.82913113       8.64955425       9.42041683       0.09470011    -608.60532354      -0.05909506       0.05544497       0.00414216
I        3.42867661       2.53140473       9.47248650       0.09372623    -608.61382013       0.00155745      -0.00367434      -0.22571013
I        9.81280994       2.81993151       3.10912538       0.09854530    -608.66456484       0.20286935      -0.06902915       0.31833134
I        3.94701743       8.94160271       3.17967558       0.09614886    -608.62656665      -0.01651275       0.06205461      -0.05872891
I        2.89125276       3.63887739       3.10881495       0.09342058    -608.58934590       0.08996115      -0.13671959       0.16255499
I        9.32941341       9.76387882       3.15573072       0.10017519    -608.64765959      -0.10382418      -0.10328961       0.00005708
I        2.81403756       9.48771763       9.49439621       0.09790922    -608.64108911       0.02119127       0.03044106      -0.16390805
I        8.84255695       3.28771162       9.51648712       0.10210878    -608.67221400      -0.04625791       0.04514893      -0.38651040
I        0.08108591       2.21457005      12.37160873       0.08672998    -608.56675809       0.01232706       0.00261051      -0.08734342
I        6.47121429       8.36283970      12.33442020       0.08776938    -608.56275313      -0.08540576      -0.01892744       0.04393361
I       10.23657799       6.13213778       0.19691308       0.08509862    -608.55120726       0.10098578       0.01010528       0.05513919
I        4.31572914      12.28084183       0.23006465       0.09158217    -608.59858183       0.12664149      -0.19714107       0.08138239
I       12.55103016      10.06476307       6.03688383       0.08989717    -608.58920461       0.12062077      -0.03624801       0.12915031
I        6.23393059       3.95009708       6.03838348       0.09299663    -608.60981544       0.16487614      -0.05117405       0.11638200
I        2.43089485       6.14909315       6.49781990       0.09387298    -608.63123889      -0.02656178       0.18161463      -0.02088120
I        8.32557583       0.06447044       6.52761173       0.08960304    -608.57184518       0.01845871      -0.16262434      -0.05918846
I       12.56599712      10.10454750       0.18839850       0.08942600    -608.57274347       0.09396961      -0.02754265      -0.05994355
I        6.25694132       3.94347095       0.24562813       0.08605534    -608.54611764      -0.12484495      -0.05235192       0.07257190
I        2.40573549       6.14510632      12.37948990       0.08618136    -608.55222063      -0.00758180       0.15796944      -0.08951424
I        8.35730362       0.06268311      12.34588051       0.08859117    -608.56235269       0.00105722      -0.09800799      -0.04546529
I        0.14570615       2.11492252       6.55966711       0.09357962    -608.62189782      -0.17399637       0.05594393      -0.07836387
I        6.42170191       8.33914661       6.53622818       0.09547888    -608.65183913       0.03445461      -0.10980485       0.07517616
I       10.32859898       6.08782434       6.06580067       0.09326835    -608.63051978       0.03478489       0.05909467      -0.12796860
I        4.39765120      12.31241131       6.07486820       0.08452111    -608.54046566      -0.03281877      -0.22194201      -0.04290182
N        5.87127352       5.91875410       3.23028159       0.04470126    -610.53175654       2.42366538      -0.94734455      -1.38377649
N       12.20029926      11.96556091       3.12752151       0.04475104    -610.44622629      -0.38742859       1.78250813      -0.46042088
N        0.43314254       6.60060835       9.37927628       0.04280661    -610.53465839       0.10880026      -2.35695859       3.01523296
N        6.35844374       0.42016205       9.39772415       0.04413361    -610.53450438       0.09818108      -2.36134670       3.82949373
N        6.95519114       6.28191662       9.45194626       0.04262896    -610.46491506      -0.89197862      -2.05537055      -4.48563484
N        0.32231897       0.11584415       9.45295429       0.04261943    -610.50310172      -1.26559402      -2.75523845      -2.42721720
N       12.41759682       5.76489210       3.06098485       0.04703484    -610.47475601      -0.68701985       0.11715556       1.86420582
N        6.44417048      11.80497074       3.12999964       0.04648890    -610.41058238      -0.45159870      -1.30195411      -1.64748711
C        5.45214367       5.97474003       9.52282333      -0.16348153    -610.02687777       0.30570027       1.82819929       1.48800659
C       11.44749832      12.21648121       9.39561653      -0.15958488    -610.07035955       2.75622848       2.38119369      -3.76383749
C        0.45027480       7.22531509       3.03033447      -0.16890994    -610.06677746      -1.06148721       0.26665105      -0.33826514
C        6.42992067       0.95289314       3.04594159      -0.17005013    -610.05689395       1.68537088      -0.58017688       3.11647664
C        7.39518261       6.08156633       3.02691483      -0.16536885    -610.06406191      -0.31702619      -1.70343980       2.72748557
C        0.96674883       0.10913901       3.06998420      -0.16304500    -610.07200171      -0.24295943       0.92664027      -1.32071502
C       12.30793190       5.07937193       9.35898304      -0.16145149    -610.04484084       0.09258218       0.93124900       0.05812991
C        6.49540901      11.16853619       9.53501797      -0.16105393    -610.09218187       0.11583365       0.58518409      -2.34275831
H       11.46560287       4.83541059      10.05572510      -0.00411139    -609.34149566       0.86318471       0.55752146      -0.32953621
H        5.83701897      10.94031620      10.35197163      -0.00456398    -609.31610554      -0.31303116       0.23091767       0.47954921
H       11.96679020       4.95226955       8.31642532      -0.00377512    -609.38627049       0.03685180      -0.11142664       0.33398849
H        6.04816151      10.79495716       8.53087997      -0.00350865    -609.45853817       0.51212755       0.77881133       1.53574049
H        0.91210002       4.45375586       9.51757908      -0.00424194    -609.39066731      -0.43566601       0.44105870       0.14863107
H        7.45756674      10.67162800       9.65087700      -0.00404840    -609.35926881       0.14206215       0.08536886       0.13065554
H        0.97625446       7.54310608       2.13809991      -0.00470291    -609.32092246      -0.11072510      -0.18237044      -0.35131219
H        6.88302469       1.14019549       2.11621499      -0.00404654    -609.29805823       0.86713630       0.17226460      -1.16497101
H        1.09368992       7.31796789       3.87537169      -0.00326551    -609.36473098       0.67506159       0.49398622       0.70690947
H        7.07166290       1.28618598       3.93404317      -0.00405985    -609.39725761      -0.79402650      -0.62128201      -1.22030452
H       11.83154774       7.84031868       3.21109533      -0.00449298    -609.44220437       0.56000946      -0.56197671      -0.27172863
H        5.52208662       1.44473565       3.09166336      -0.00319414    -609.31097704      -1.88928395       1.46435242       0.09422866
H       11.96072483       7.17394638       9.18439865       0.00005566    -609.42389888      -2.14790664       1.24062964      -0.31709357
H        5.51351690       0.92827755       9.66686344      -0.00040830    -609.44102601      -0.29470298       0.44809649       0.01999150
H        0.88424265       7.01719618      10.26859570       0.00028915    -609.47762434      -0.35147347      -1.21416644      -1.15775900
H        7.19332981       0.72850758       9.99963856      -0.00025156    -609.45963966      -1.13605057      -0.44081059      -0.45341805
H        1.01981413       6.66819239       8.59481907      -0.00024871    -609.38439390       1.91259847       0.46581253      -1.61277595
H        6.58804464       0.58448303       8.47848034       0.00000291    -609.37465650       0.73237211       0.73690113      -3.18541153
H       12.17598438       5.66996431       4.09918833       0.00009287    -609.49551128       0.02223269      -0.60182276      -1.09207791
H        5.50912237      11.64149189       3.63314962      -0.00089965    -609.46235754       1.50686329       0.18410209      -0.16996010
H        0.94659853       5.16554308       2.88916945      -0.00036023    -609.46062195       0.11173909      -0.10102498      -0.09758942
H        7.21164894      11.05536175       3.39150167      -0.00002422    -609.42759793      -1.13881800       1.42860030      -0.34571830
H       11.59656143       5.38792181       2.54489803       0.00020982    -609.49110291       0.28690612       0.55295103      -0.24972519
H        6.20221090      11.67235947       2.08673978       0.00069806    -609.48834602       0.09936370      -0.68803257       1.32458244
H        0.58078277       0.58178329      10.26153183       0.00051391    -609.41728761       0.66270484       1.29873720       2.62139633
H        7.21227741       6.95051241      10.09369564      -0.00042292    -609.38944670       0.77891549       2.06092189       2.44862003
H        7.71670628       5.48614979       9.42800999       0.00066556    -609.42170780      -1.65511848       0.88535187       0.07628865
H        1.32651114      11.49481392       9.36178780       0.00030875    -609.45609634      -1.11955180       1.33262465       0.12270733
H        0.50914818       0.75192815       8.67074585      -0.00041947    -609.44541155       0.46993448       0.07157375      -0.48727399
H        6.93316031       6.81407785       8.48612690      -0.00024079    -609.43970532       0.83446253      -0.79385823       1.30851506
H        5.00307512       7.04732180       9.52751827      -0.00338780    -609.46834076       0.32549538      -1.78836952       0.00662012
H       10.69555092       1.00033021       9.32672310      -0.00363032    -609.41864464      -0.00366744      -1.36811697       0.08969363
H        5.19577217       5.45086908      10.46694183      -0.00394563    -609.31923024       0.21457558       0.24292018      -0.56136220
H       11.19345474      11.75379467      10.25286484      -0.00487397    -609.13586845      -1.17996487      -1.70100634       2.81111197
H        5.14944887       5.44229698       8.63975906      -0.00484880    -609.30574168      -0.04398680      -0.34249224      -0.44475468
H       11.28070354      11.64297485       8.43509769      -0.00438288    -609.40467558      -0.12612855       0.56974169       1.14218798
H        7.65258455       6.72669935       2.25079823      -0.00506998    -609.25290444       0.07581973       1.17663651      -1.41795887
H        0.96106672       0.91502762       2.24153233      -0.00245959    -609.42886137       0.33939243      -1.24880235       1.09195841
H        7.75743246       5.03299093       2.81814957      -0.00379237    -609.44210419      -0.24306416       1.06488725       0.11240004
H        2.12692595      11.61666298       2.83373308      -0.00401441    -609.32985431      -0.99276916       0.29845820       0.32719868
H        7.85549068       6.39970922       4.00592327      -0.00392503    -609.42353870      -0.51851068      -0.07643770      -0.89231333
H        1.15674365       0.62567961       4.01732445      -0.00370143    -609.37162455       0.19342268      -0.20497229      -0.02176936
H       11.89655685      11.57685757       4.04555750      -0.00033008    -609.45676385       0.39783484      -0.32954364      -0.32340657
H        5.74256468       5.50031662       4.13334274      -0.00029661    -609.40231225      -0.43865196      -0.01555946       1.49576076
H       11.86560822      11.36588764       2.31280446      -0.00025301    -609.45132972       0.58898620       0.41056913       0.74100937
H        5.69364214       5.13229084       2.61115313       0.00017082    -609.46095163      -0.70296835      -0.40350195      -0.78540673
H        5.22194815       6.65269375       2.99278212       0.00030735    -609.40867878      -0.25232033       1.12605398       0.10948669
H       11.29944706       0.63005251       3.05707693      -0.00086701    -609.48175704       0.13851447      -1.38368570      -0.00367288
96
Lattice="12.299111366271973 0.0 0.0 0.397482693195343 12.292691230773926 0.0 0.0 0.0 12.580405235290527" Properties=species:S:1:pos:R:3:initial_charges:R:1:energies:R:1:forces:R:3 original_dataset_index=7 energy=-58469.721502875254 pbc="F F F"
Pb       9.56650543       9.18676090      12.55218887      -0.14509685    -606.24969337      -0.04162397       0.14912990       0.01799595
Pb       3.14239573       3.01499891      12.51280975      -0.14901702    -606.31203583       0.06848224       0.09963267       0.21704033
Pb       3.43780780       9.15996170      12.59355068      -0.14259222    -606.22000718      -0.06699288       0.05568560      -0.04791900
Pb       9.30728245       3.11704159      12.60865211      -0.14939635    -606.29184082      -0.04926864      -0.13508003      -0.03029851
Pb       9.55657196       9.19449615       6.29340792      -0.14438666    -606.24920701      -0.00730216      -0.02396702      -0.01662174
Pb       3.16481161       3.07391095       6.28856707      -0.14656968    -606.29927304       0.04261526      -0.06514394      -0.10489130
Pb       9.33161449       3.01388407       6.28886700      -0.14083555    -606.20653645       0.02593147       0.10535623      -0.01721241
Pb       3.40174675       9.21833229       6.25640774      -0.14227754    -606.23640584      -0.09092385       0.09013565       0.13909409
I        9.83726120       8.64780903       9.41798878       0.09270214    -608.57798090      -0.09513544       0.06887993       0.01051081
I        3.42760181       2.53461576       9.47908878       0.09220098    -608.59739242       0.00041739       0.00335217      -0.25651139
I        9.80232048       2.82342935       3.10263610       0.09897450    -608.66777314       0.23804248      -0.10558964       0.40177150
I        3.95135975       8.94082832       3.18539929       0.09679206    -608.63221115       0.01045940       0.04523912      -0.08310462
I        2.88461614       3.64408875       3.10305333       0.09007051    -608.55524367       0.11482646      -0.18584845       0.16338294
I        9.33850384       9.76532745       3.15808797       0.10080622    -608.64657144      -0.14492307      -0.09521974       0.02499395
I        2.81026649       9.49105644       9.50426197       0.09683476    -608.63323740      -0.01530538       0.10636500      -0.15736686
I        8.85244179       3.28166509       9.53013706       0.10436720    -608.68771058      -0.08673035       0.05459420      -0.43812986
I        0.07611472       2.21633220      12.37696552       0.08424667    -608.54030806       0.02354986       0.00886579      -0.08835495
I        6.47356415       8.36496830      12.33331108       0.08712046    -608.54931178      -0.07894176      -0.01399335       0.05832216
I       10.22625351       6.13644361       0.18942972       0.08439429    -608.54481202       0.13337400       0.01127384       0.06043402
I        4.31070137      12.28543377       0.22844192       0.08996204    -608.57979366       0.12766297      -0.24916431       0.07663789
I       12.54170895      10.06418610       6.03578854       0.08768456    -608.56392994       0.14961127      -0.04988646       0.14239121
I        6.23012161       3.95506406       6.03757095       0.09290873    -608.60297706       0.20383612      -0.06462504       0.13347491
I        2.43455958       6.14641190       6.49444485       0.09258389    -608.61636781      -0.03961115       0.21696047      -0.02947874
I        8.31934834       0.07242142       6.52942753       0.09161884    -608.57835016      -0.00291651      -0.17879302      -0.06510674
I       12.56011105      10.10684204       0.17878239       0.08999330    -608.56865708       0.12703973      -0.02384723      -0.05103680
I        6.25783443       3.94317031       0.24622124       0.08404890    -608.51599109      -0.14894719      -0.08932765       0.04809887
I        2.40539622       6.14102983      12.38812923       0.09040560    -608.58798907      -0.07694014       0.19931425      -0.14207990
I        8.35706902       0.06971958      12.34859180       0.08701915    -608.53863705       0.00728340      -0.13114272      -0.01229021
I        0.15113279       2.10435271       6.56360531       0.09216198    -608.60599868      -0.19864755       0.06572186      -0.09354678
I        6.41454220       8.34218502       6.53612518       0.09835486    -608.67193328       0.08540686      -0.15917845       0.11202405
I       10.33208084       6.08505869       6.06852627       0.09444707    -608.63666368       0.05980126       0.06304853      -0.14856497
I        4.40459347      12.32323265       6.07924271       0.08460716    -608.53948941      -0.01058280      -0.26971737      -0.07876030
N        5.86442423       5.89651966       3.23313165       0.04512742    -610.50699873       2.02335048       0.76830352      -0.67982858
N       12.19301414      11.94772243       3.12077308       0.04381049    -610.41571895      -1.00795920       2.12577156      -0.24038374
N        0.43594331       6.60673094       9.36788177       0.04300787    -610.49733152       1.10540705      -4.11345962       5.48513937
N        6.34988689       0.40073231       9.39726639       0.04412930    -610.50079769       1.00012045      -0.77319630       1.20336181
N        6.97589636       6.27956820       9.44042110       0.03949850    -610.39600273       0.20201312      -0.47393725      -3.13662140
N        0.29433590       0.11711065       9.44212532       0.04037162    -610.47264653      -0.97275511      -3.43863987      -0.07111189
N       12.43835926       5.77896452       3.05619311       0.04669525    -610.47816301      -1.03848045      -0.41310060       1.83980116
N        6.45332909      11.78880882       3.11074138       0.04528680    -610.38193836       0.00191419      -0.90368694      -0.53159150
C        5.48782444       5.97019339       9.54686832      -0.15750872    -610.02849265      -0.87673832       2.47281325       1.10114310
C       11.44052124      12.23592758       9.39000416      -0.15980640    -610.04312762       0.24072575       1.38664632      -2.28944470
C        0.46729010       7.23919630       3.01259947      -0.16753244    -610.05942887      -1.25705370       0.17053981      -0.13184117
C        6.44059563       0.94531989       3.04090428      -0.17011404    -610.09353978       2.26097686      -0.64108517       2.27623256
C        7.40111685       6.04590607       3.01717162      -0.16268183    -610.10333250      -0.65329709      -1.26438837       1.98738705
C        0.95175719       0.10613435       3.05477715      -0.15946220    -610.06376617      -0.10513172       1.20454030      -1.35668709
C       12.30914307       5.08390903       9.33737087      -0.16309755    -610.05236953      -0.18232296       0.62401134       0.68878388
C        6.52108812      11.15360069       9.54870701      -0.15603638    -610.05680722      -0.46312299       0.90415305      -2.92991563
H       11.45209694       4.84279442      10.05197239      -0.00414170    -609.33749344       1.05355511       0.68578988      -0.93606281
H        5.84962797      10.97803211      10.38346767      -0.00459139    -609.29681793      -0.17458283       0.01745861       0.00171606
H       12.02883911       4.99908304       8.27016354      -0.00325527    -609.36575140      -0.09797805      -0.53358615       0.49250358
H        6.07108784      10.80439091       8.46901321      -0.00349254    -609.42443361       0.95429406       0.67418275       2.72063293
H        0.89120954       4.43700361       9.59123421      -0.00453696    -609.39010864      -0.55080538       0.73683993      -0.26147459
H        7.50335979      10.71454525       9.72341442      -0.00430159    -609.30345417      -0.01828892      -0.15317718      -0.08992691
H        0.95499527       7.54530048       2.08785129      -0.00494111    -609.32868311      -0.08434327      -0.15264792      -0.02016884
H        6.94723988       1.10114145       2.12270927      -0.00352618    -609.32475327       0.42627633       0.29046382      -0.95289832
H        1.08841491       7.35354424       3.87537336      -0.00365203    -609.34839136       0.82927983       0.42226317       0.43593459
H        7.09428644       1.33252895       3.88999319      -0.00364741    -609.39307507      -0.69416485      -1.01273532      -0.80342749
H       11.84797287       7.84259796       3.22184110      -0.00423977    -609.42181365       0.45496463      -0.51726625      -0.42093529
H        5.55697680       1.46205735       3.11794233      -0.00326704    -609.28665328      -2.17669711       1.54183507      -0.18039844
H       12.00343895       7.13577080       9.11637402       0.00079271    -609.29082367      -4.26591040       2.77041552      -0.54118137
H        5.54167557       0.94824553       9.72085476      -0.00047403    -609.46660733      -0.24421486       0.11527959      -0.16025493
H        0.84214091       6.94387102      10.34904861      -0.00091548    -609.34857591      -0.32548532      -0.82480843      -2.26377968
H        7.20752764       0.75395501       9.92399597       0.00016785    -609.49073949      -0.97055862      -0.64372364       0.00635880
H        0.96266103       6.63215065       8.57069111       0.00089532    -609.24377703       3.42321773       0.58086685      -2.46801282
H        6.59810972       0.64555615       8.44065094      -0.00021924    -609.46134775      -0.25345228      -0.06840140      -0.77032241
H       12.19692707       5.63458300       4.11002350      -0.00057294    -609.49658879       0.40597100      -0.33340019      -1.62054876
H        5.49407673      11.69347668       3.62173581      -0.00104064    -609.43033608       1.88731512      -0.19566807      -0.47842310
H        0.93651140       5.17197800       2.78506160      -0.00025522    -609.45872252       0.23779489       0.03424623       0.30973984
H        7.26942444      11.06823921       3.46824050      -0.00040074    -609.36897479      -1.86511667       1.58953141      -0.85682945
H       11.61131668       5.38841724       2.55197024       0.00039134    -609.51389533       0.19177556       0.80105051      -0.18368094
H        6.26043558      11.63167000       2.05927587       0.00011972    -609.45333338       0.04531453      -0.61447619       1.53230728
H        0.64045489       0.48363096      10.30288506       0.00043011    -609.44177873      -0.17059645       1.20193567       1.30794020
H        7.27778530       6.98430777      10.10231304      -0.00076767    -609.42964611      -0.00948017       0.31803253       0.77168099
H        7.73443556       5.43817806       9.47084045       0.00084845    -609.36670562      -1.90190584       1.46934349      -0.23798960
H        1.30725729      11.44891930       9.44643974       0.00063561    -609.39775682      -1.43821955       1.70377958      -0.86536951
H        0.45959854       0.76838309       8.67921638      -0.00115143    -609.36707351       0.87719551       0.19240362      -0.68883596
H        6.98610401       6.86283541       8.42749882      -0.00116666    -609.36143726       0.52301848      -1.55315741       2.19120164
H        4.99477816       7.11104202       9.53085804      -0.00270979    -609.40741612       0.88766279      -3.02811195       0.07356670
H       10.60890293       1.03251386       9.29843807      -0.00316390    -609.41770024       0.79576965      -2.04672417       0.16596328
H        5.17679548       5.43195915      10.49559021      -0.00357671    -609.27718794       0.70964312       0.73572061      -0.93927303
H       11.01731396      11.74164486      10.22593307      -0.00446479    -609.19903347       0.05685337      -0.41982674       1.24095402
H        5.13993597       5.40709925       8.67532730      -0.00429867    -609.26394658       0.27573004       0.12542154      -0.06772885
H       11.13430595      11.60618782       8.46084023      -0.00358643    -609.40519572       0.88946714       1.19397385       1.28543534
H        7.60333347       6.75253677       2.25343943      -0.00457536    -609.28472294       0.06821728       0.55444242      -0.94907251
H        0.91007370       0.95564681       2.21450138      -0.00253790    -609.39456206       0.55067835      -1.80004327       1.70565520
H        7.64506912       4.98273563       2.73217678      -0.00279644    -609.41631619       0.54207757       1.24674705       0.28263089
H        2.12316751      11.59522533       2.79305363      -0.00374719    -609.32123042      -1.42371853       0.82490388       0.40754663
H        7.89532614       6.38208961       3.99416471      -0.00409815    -609.43323340      -0.72022126      -0.57599048      -1.19474596
H        1.13554168       0.56962097       4.04595089      -0.00342350    -609.34064033       0.26330816      -0.18080356      -0.52056730
H       11.88748264      11.59697533       4.05693960      -0.00029411    -609.43522298       0.54643092      -0.64450980      -0.48184948
H        5.77253151       5.52287865       4.16933632       0.00001738    -609.39490546      -0.56126310       0.32635983       1.22343077
H       11.89786816      11.32484341       2.30483079      -0.00050543    -609.42028224       0.35293213       0.49670345       0.87370231
H        5.64464617       5.08327150       2.68228102      -0.00029562    -609.42392060      -0.81281139      -0.41928353      -1.13962942
H        5.29365349       6.73209763       2.97574878      -0.00047005    -609.39969323       0.11718381      -0.34446496       0.47203829
H       11.21038532       0.60198402       3.08350158      -0.00101895    -609.46155618       0.85269317      -1.72550138      -0.36687075
96
Lattice="12.299111366271973 0.0 0.0 0.397482693195343 12.292691230773926 0.0 0.0 0.0 12.580405235290527" Properties=species:S:1:pos:R:3:initial_charges:R:1:energies:R:1:forces:R:3 original_dataset_index=265 energy=-58451.01380416095 pbc="F F F"
Pb       9.99108410       9.59509468      12.02648354      -0.13986611    -606.16171616      -0.15297449       0.26642355       1.34550134
Pb       2.43263412       2.93481278      12.24511051      -0.11463547    -605.72187169       0.67018826       0.29603731      -0.09036530
Pb       3.58070636       8.71361065      12.54777431      -0.13696723    -606.04606631      -0.05723215       0.12882804       0.57886005
Pb       8.60620308       3.67876482      12.63551044      -0.12385571    -605.68144949      -0.16549794      -0.11078163       1.25310940
Pb       9.73841286       8.67433262       6.29067802      -0.12521462    -605.77681381       0.98891275       0.12514378      -0.86192049
Pb       2.90824246       3.50487208       6.21259499      -0.14050899    -606.07660148      -0.02629843      -0.83979622      -0.00509020
Pb       9.32600307       2.75786686       6.70507956      -0.13306426    -605.93225654       0.29680445      -0.18574158       0.25645145
Pb       3.42933297       9.36132526       5.97937346      -0.11557923    -605.50881343      -0.75661701       0.99380924       0.89650115
I        9.94391251       8.61260033       9.23024940       0.10685205    -608.71031334      -0.01236657      -0.38103651      -0.17446904
I        3.67501616       3.32925630       9.20547199       0.09608787    -608.61937741      -0.16657435       0.07192425       0.78668202
I        9.49530697       2.41323161       3.83740020       0.08834247    -608.43874149      -0.22420628       0.86193934      -1.29123121
I        4.25437117       9.67994595       3.27465463       0.01836339    -607.50935494       5.12353884      -2.02199176       1.58600593
I        2.64436984       3.16463375       3.11475420       0.08652230    -608.44899930       0.75042529      -0.61685756      -0.39896915
I        9.64679623       9.41194630       2.74148989       0.07073880    -608.36768220      -0.01207739      -0.15356104       0.25670614
I        3.61654520       9.23113632       9.72512436       0.08646023    -608.49565323       0.04447378       0.03327517      -0.77077595
I        9.23228264       3.31582046       9.93918228       0.08496487    -608.50514048       0.07986688      -0.06952943      -0.97583009
I       -0.59223777       1.99126160      13.06816769       0.15343247    -609.06852285       0.27139309       0.13745881       0.23872012
I        6.76211023       8.75719929      12.44095802       0.06434623    -608.30309752      -0.02775136      -0.17576955       0.01176592
I       10.23076057       6.28525734       0.10022776       0.08072989    -608.44490051      -0.40629923      -0.00507895      -0.02575950
I        4.26500225      12.28699970       0.02853573       0.11992718    -608.71044970      -0.52855789      -0.13803321       0.76922701
I       12.63297176       9.84857750       6.22694206       0.07778692    -608.45205476       0.10414943      -0.22464759       0.01661917
I        6.29105616       3.06547642       5.95991468       0.07737903    -608.26961011      -0.54565938       0.76499014       0.95019351
I        3.21528029       6.47432995       5.85709715       0.07890540    -608.45791291      -0.02459936      -0.11652147      -0.11786153
I        8.87773705      -0.48195118       5.99245501       0.07663496    -608.36305158      -0.32277146      -0.03339305       0.31919781
I       12.97963715      10.15390491       0.31640992       0.08415238    -608.44343473      -0.32420205      -0.16524618      -0.46180250
I        5.56378460       3.78960967       0.49450091       0.07955043    -608.46304053      -0.23888580       0.26016717      -0.25512923
I        1.58103859       6.13657522      12.32740784       0.09518090    -608.50742938       0.84192326      -0.21742604      -0.34177360
I        8.09441566       0.11473310      12.67415905       0.07183179    -608.31033060       0.73197863       0.32573215      -0.80933779
I        0.19903763       2.06202269       6.33112907       0.08035194    -608.44028601      -0.21476702       0.09126562       0.38982137
I        6.48827934       9.03937340       6.96970510       0.15024108    -609.01045491      -1.65810450      -1.35562573       1.91020447
I       10.26580906       5.63932943       5.98164797       0.08143073    -608.49873139      -0.20934832       0.12641790      -0.18079719
I        4.25545597      12.70340347       6.28412342       0.06733137    -608.25952246      -0.32554692      -0.64182431       0.00689886
N        6.32081556       6.41119146       4.18883181       0.00644211    -610.32440229       2.97958878      -4.27147119       0.83570682
N       11.91421795      12.18536377       3.57103300       0.04863514    -610.52160283      -0.65637133       0.94270840      -0.34541081
N        1.27735817       6.60344791       9.01993656       0.00679843    -610.65718641       2.74814020      -1.27501332       0.14186355
N        5.16159630       0.18879621       9.46224308       0.04820900    -610.48866015      -0.59199363      -0.39662746       1.48657397
N        7.11100626       6.29490328       9.35459137       0.01792394    -610.15865588       0.61707792       0.75471390       0.53548649
N        0.65129322      -0.17081992       9.58889484       0.00455502    -610.81236651      -0.84648551       2.23393907      -0.75427272
N       12.63977909       5.11749744       2.56840968       0.04770704    -610.41588756       0.05750502       2.35376046       0.06812851
N        6.53619909      12.21397305       2.62523508       0.00928192    -610.70532981      -0.75574020       1.69127712      -1.05231825
C        6.25642633       5.92331266      10.28356361      -0.11997679    -610.07110261       2.18331494       0.92922592      -1.52860644
C       11.90976906      12.39700127       9.50384903      -0.15862326    -609.87486102       0.82763273      -0.06674085       0.87933930
C        0.42647827       6.63543224       3.00359702      -0.16443484    -610.06856472       2.08920869      -2.53035176       1.93099313
C        6.03341961       1.14908361       3.32135653      -0.16094939    -609.87476982       1.82155296       0.87190553      -2.06642431
C        6.28275394       5.02752256       4.02391195      -0.11799221    -609.92648504       1.73193507       1.74476271      -0.30096167
C        0.63532501      -0.08281191       3.27955389      -0.17281228    -609.94762401       0.21007303      -0.05629035       1.52721624
C       12.54950523       5.66002131       8.89802742      -0.16705766    -610.00863653      -0.14930800      -1.44259914      -0.65876628
C        6.87478638      12.54251766       8.81041908      -0.16659379    -610.07852970       1.51179383       0.05765455       0.39268948
H       12.01880264       5.42768669       9.82293606       0.00007047    -609.16672212      -0.64284609       0.04531892       0.21731653
H        6.94491434      13.38803291       8.09841347      -0.00300465    -609.35489462      -0.23242216      -0.50476319       0.23674829
H       12.01148415       6.16364717       8.13284206       0.00017433    -609.10624182      -1.92363656      -0.23031184      -0.46582583
H        7.67037725      12.65942192       9.61441994      -0.00256419    -609.42329883      -0.83907944       0.00315330      -0.79385992
H        0.51044935       4.65971899       8.44351196      -0.00295944    -609.27762469       0.38325296       0.69304087       0.31447594
H        7.05423260      11.57726955       8.31986141      -0.00266068    -609.35065252       0.03891480       0.33766333      -0.09413056
H       -0.14552493       6.74304867       3.91857004      -0.00342102    -609.33431807      -0.12192064       0.20911017       0.06322072
H        6.95468235       1.26766098       3.86585164       0.00105597    -609.01663407       0.21059059       0.19346221       0.84609379
H        0.15937990       7.30425024       2.24038863      -0.00475377    -609.27582578      -0.79614151       0.49302825      -1.29699182
H        5.17899895       1.27500963       3.89983034      -0.00079287    -608.99415106      -1.57881986       0.13708064       1.34405940
H       13.81837368       6.77669001       3.21671247      -0.00257479    -609.42967637      -0.82251156       0.03537500       0.01013495
H        6.08478260       2.00084782       2.56145406      -0.00226514    -609.31296422      -0.33380725      -1.14622266       0.79959863
H        4.59056282      11.70791721      14.73078728      -0.00503121    -607.98177685       0.35538078       0.55561277      -0.84626368
H        5.27925968       0.01433978      10.50786114       0.00013654    -609.46387085      -0.27048760      -0.24611875      -1.09552854
H        2.02172518       6.33380175       9.67783260       0.00172489    -609.12778056      -0.51907304       0.92345585      -0.31661862
H        4.63766479       1.07849598       9.45104790       0.00026449    -609.46663327       0.09136024       0.57274000      -0.30794458
H        0.90467018       7.51395082       9.05055141       0.00006748    -609.13342807       0.15654929       1.31446683       0.54208979
H        4.48161364      -0.49169835       9.04853249       0.00011023    -609.48187755       0.61770884       0.12192415       0.26216062
H       13.09270668       5.23955488       1.60234869      -0.00021288    -609.42138730      -0.00593033      -0.88676051       0.72130281
H        7.48468304       9.67577267       5.97972584      -0.00086654    -607.99848185       1.24926210       1.41224433      -1.78911164
H       -0.62808084       4.94426394       2.37569523       0.00047494    -609.46520856      -0.98484294      -0.46615004      -0.01332380
H        6.40860891      11.31932640       2.96300554       0.00466086    -609.07078869       0.12680872      -1.77580168       1.19995251
H       13.10591507       4.33995724       3.19088936       0.00060845    -609.34755366      -0.51435876       1.53355144      -0.93038955
H        6.52082968      12.33567429       1.64232588       0.00200207    -609.11996436       0.34346777      -0.50737596      -0.78112529
H       -1.83601272       1.53193653      12.06955528      -0.00236286    -608.11186159      -0.18170460      -0.32636307      -0.16578081
H        6.84998846       6.02489614       8.34931469       0.00450453    -609.19942449       0.99441639       0.64202629       1.52346068
H        8.46255016       6.15315104      15.15149593       0.00989135    -609.02415705      -0.30121006      -0.28625959       0.17931884
H        1.25539637      11.27611160      10.02958298      -0.00023608    -609.11967585       1.07779548      -1.26069415       0.56372895
H        1.35118139       0.42200759       9.11322212       0.00133975    -609.13023156      -0.78680375      -0.92934109       0.40926654
H        8.02394485       6.91123295       9.60397148       0.00388312    -609.08411552      -1.88019512      -1.31641608      -0.93403068
H        5.51590490       5.35551739       9.74565887      -0.00293534    -609.02454751      -1.23257717      -0.54344743       1.16023947
H       11.01199341      -0.72124076       8.91256714      -0.00241215    -609.19538876      -0.12759901       0.86520022       0.79715012
H       26.98728561      -2.11567211       2.50543070       0.01128753    -608.94323175      -5.11118134       1.57911074      -1.33066243
H       11.77630234      13.36503220       9.03617859      -0.00404091    -609.16412600      -0.13341597       0.14018201      -0.55119734
H        6.48187780       6.20078564      11.34530163      -0.00516743    -608.98078847      -0.63559848      -0.36570182      -0.77725111
H       11.50308514      12.61918640      10.56751251       0.00002823    -609.18540106       0.01588109      -0.96176059      -1.33260168
H        7.87917805       5.79311848       2.92587328       0.01126702    -608.85344971       1.24184245       0.26282778      -0.98682427
H        1.06921148      -0.99890828       3.70766044      -0.00632876    -609.22607315      -0.05844258       0.62060509      -0.03692342
H        5.43051434       4.73556948       3.39397550      -0.00335329    -608.95416085       0.03130775      -0.59340950       0.61061505
H        1.44776642      13.08551979       3.79934812      -0.00311914    -609.36450961       0.15791767      -0.18233632      -0.25239056
H        7.25472975       4.33891392       4.08554077      -0.00689184    -608.84458758      -1.83041618       2.09447104      -0.67504051
H        0.73668194      -0.01389495       2.21732807      -0.00634044    -609.28623946       0.51891200      -0.03714139      -0.62458323
H       11.52577209      13.12576485       3.35677743       0.00040027    -609.46695302      -0.40498263      -0.22176955      -0.23706507
H        7.25579786       6.86743116       4.31888628      -0.00226270    -609.08499826      -1.40351878      -0.32285982       0.09631236
H       11.65582943      12.10069561       4.54135418       0.00038771    -609.47359257       0.24869870      -0.26228327       1.27932361
H       14.31016827      10.49794388       2.64829135       0.00982998    -608.59760521       0.46201596      -0.82935616      -1.30112499
H        5.53544521       6.91542387       3.92886925       0.00180272    -609.08199175      -1.78003712       1.44201280      -0.39850312
H       10.93810272      -0.82326812       3.13620019       0.00162007    -609.48715942      -0.14976483      -0.59642355      -0.74406679
96
Lattice="12.299111366271973 0.0 0.0 0.397482693195343 12.292691230773926 0.0 0.0 0.0 12.580405235290527" Properties=species:S:1:pos:R:3:initial_charges:R:1:energies:R:1:forces:R:3 original_dataset_index=394 energy=-58454.31389922081 pbc="F F F"
Pb       9.67288208       9.34108353      12.42607498      -0.14210236    -606.25214844      -0.02952554      -0.19619525      -0.11119826
Pb       2.74774909       3.04490352      12.33192730      -0.13712651    -606.13689796       0.14657371       0.24607960      -0.05731261
Pb       3.51038241       8.85013103      12.61833572      -0.14503399    -606.25964443      -0.25130422      -0.29929789       0.15944254
Pb       8.57596207       3.47971964      12.77083874      -0.14415455    -606.13694632       0.69261584      -0.33504772      -0.16161922
Pb      10.20013332       8.87717152       6.12777615      -0.13597643    -606.07563685       0.01869468       0.09763225       0.37717797
Pb       2.93914247       3.23989511       6.33557844      -0.15683882    -606.37095968      -0.31498774      -0.20080200       0.30026208
Pb       9.23422146       2.68933868       6.51298141      -0.14701605    -606.18389717       0.07564043       0.32348311       0.16902108
Pb       3.21395946       9.23501015       6.24806309      -0.13915569    -606.13816413       0.09519269       0.41783308       0.13992366
I        9.45430660       8.69882584       9.44365501       0.08867207    -608.56661802       0.32900850      -0.27514667      -0.59456637
I        3.85608459       3.34599066       9.32783794       0.08022401    -608.42703249      -0.14020041      -0.49126382       0.57743472
I        9.38352108       2.79080319       3.28772712       0.08924280    -608.53043252       0.26182624      -0.08756301       0.08703079
I        4.21568012       9.13066006       3.05813503       0.06680191    -608.32848923      -0.07247337      -0.04546386       0.12479634
I        2.83356762       2.76060319       3.09374499       0.08370511    -608.47175315      -0.75577911       0.63729469      -0.30024901
I        9.52939320       9.49413967       3.02703190       0.09871756    -608.63932830       0.11699239      -0.06420215       0.11209160
I        3.80647469       9.08030319       9.45340633       0.09086134    -608.46633864      -0.21295688       0.12185084      -0.43194429
I        8.90585518       3.49896073       9.75932884       0.07489707    -608.37193794      -0.03992292      -0.02385405      -0.43377627
I       -0.42525476       2.00531673      12.75217819       0.19492380    -609.09061191       0.78384691      -1.70226333      -1.43523380
I        6.53335428       8.91884518      12.02920628       0.06902133    -608.34992371       0.54697757      -0.30986228       0.12219467
I       10.34431553       6.05635118      -0.10894353       0.08127397    -608.40233118      -0.26799585       0.35450394      -0.16712026
I        4.69212198      12.49081421      -0.01961915       0.12334780    -608.91983069      -0.94795684      -0.22418472       0.11017706
I       12.80666351      10.14172649       7.35362196       0.07453206    -608.43291425      -0.04173233      -0.23423305      -0.28552423
I        6.21909142       3.15485287       6.23504591       0.07861388    -608.39184012      -0.22134790       0.48856333      -0.02925947
I        3.38851762       6.18050051       5.81320763       0.08731295    -608.46286372       0.17590722       0.48506589      -0.57444897
I        9.17699242      -0.26190412       6.13839245       0.08919726    -608.48016945      -0.01567034      -0.44634638      -0.07977858
I       12.94809055      10.08256054       0.04049840       0.07508382    -608.40707039      -0.31671471      -0.03761040       0.07296477
I        5.82359791       4.31578922       0.40648267       0.08176944    -608.46304337      -0.87821235       0.29046389       0.18582632
I        1.86567199       6.03701305      12.10477066       0.07947269    -608.45190450       0.33029305       0.08257164       0.20851032
I        7.96487379       0.21274775      12.06182671       0.09264135    -608.62966766       0.49651340       0.12249198       0.26042370
I       -0.04858068       2.34475875       6.88493586       0.06990330    -608.27879581       0.05417070      -0.92433023      -0.39838869
I        6.78207827       9.33826351       6.49648714       0.13153000    -608.91995581       0.24053919       0.39581834      -1.01736661
I        9.64327526       5.79691172       6.04432344       0.08742626    -608.46723217       0.06258424       0.46251456       0.10951535
I        3.90066481      12.46049881       6.37335205       0.08067374    -608.46245828       0.14136431      -0.58365920       0.01702807
N        6.70817137       6.33850527       3.94063163       0.00863582    -610.28762825       1.74444131       2.88783196       0.11763857
N       12.21577454      12.03743744       3.65394783       0.04941803    -610.41801825      -0.56425466      -2.26168560       2.91938255
N        0.62402946       5.17422056       7.79212999       0.01382405    -610.22329561      -0.00085310      -0.21123266       0.63522891
N        5.45765734      -0.57105041       9.29816246       0.04705450    -610.47844118      -1.66063225      -0.79912301      -0.58785087
N        6.30466652       6.64416409       8.82360744       0.01240736    -610.28083060       0.47203032      -0.32906943      -1.04530107
N        0.67774594       0.48998585      10.45239639       0.00811945    -610.60707580      -1.09375992      -0.45051846       0.52011596
N       12.36388969       5.11170435       2.59974170       0.04449403    -610.44223835       0.03784063       0.56563794       0.43605933
N        6.76737690      11.88791943       3.38751292       0.00685634    -610.27470684       1.25813329       2.67602259       2.32627832
C        6.27801800       5.50380993       9.42358112      -0.12193705    -610.15695359      -0.13278789      -0.09531073       0.45572241
C       11.94017506      12.64422226      10.06620598      -0.16305563    -609.99072879       0.85555044       0.19736353      -1.54558063
C        0.52927399       6.39570713       3.20431399      -0.16856472    -610.08885634      -0.30908365       1.08404590      -0.16119904
C        5.88137531       1.19314992       3.17810678      -0.15291442    -609.78848408       0.56978120      -1.30971462      -1.62211418
C        6.30744362       5.18233347       3.68285489      -0.12330548    -610.14789502      -1.30305181      -2.75803884      -0.69796431
C        0.93060440      -0.61652172       3.39635921      -0.16785240    -610.12118255       1.66204217       1.55881926       0.94426099
C       12.14032555       5.16230965       8.92764091      -0.12000757    -610.14693444      -0.76802433       0.50775829      -1.83529106
C        6.92573214      12.53592491       8.66121292      -0.16596600    -610.07832799       0.72293039      -1.08473593      -0.02484493
H       15.14718628       6.29791212       8.47499657       0.01032252    -608.91487183      -1.38043259       0.97586319      -1.35042850
H        6.99592209      12.34180737       7.57578754      -0.00471344    -609.37078279      -0.37773040      -0.14503387       0.47175120
H       11.09017754       5.09208393       8.88053036       0.00217951    -608.78100355      -1.61977057      -1.54289048      -0.51090627
H        6.72342443      13.57530022       8.81542492      -0.00419067    -609.32734398      -0.15655275       0.69929041       0.26108023
H        0.03086305       5.60978079       9.83829880      -0.00270658    -608.85779412       1.61865058       1.07818809       1.64919345
H        7.88503647      12.23290348       9.12242889      -0.00322082    -609.39327039      -0.36807248       0.28877768      -0.14509031
H        0.16773558       6.46748114       4.23952436      -0.00616391    -609.36632079       0.18090152       0.05709028      -0.21749105
H        4.79230118       1.25437307       3.36161017      -0.00428099    -609.11527727       0.71551309      -0.56486069       0.39547981
H        0.13685809       7.25201941       2.56006861      -0.00590337    -609.48813283       0.27809339      -0.96622496       0.87040590
H        5.92664337       1.48122811       2.03445530      -0.00309218    -609.22193238       0.50061644      -0.75614294       2.11678473
H       13.92001724       6.41119242       3.14773560      -0.00664836    -609.40560204       0.07359060       0.03221782       0.14558412
H        6.38201284       2.02343512       3.75961375      -0.00375326    -609.13260634      -0.17931936      -1.25285014      -0.38271232
H        6.45209789      12.81909657      12.47728348       0.00036747    -608.21039444       0.49387638      -0.23242246      -0.09929801
H        5.27728271      -0.39619312      10.32420254      -0.00121576    -609.46990108       0.34260664       0.11845826      -0.69383297
H        0.91733122       6.09499502       7.61909103       0.00079372    -608.88244389       1.41865073       1.55492130       0.06923345
H        4.49558353      -0.42830765       8.80520916      -0.00028202    -609.51068126       1.43931657       0.02424351       0.47613430
H        0.10211089       4.93846273       6.95996714       0.00242335    -609.03932349      -0.45896992      -0.62807169      -0.11738448
H        5.58369017      -1.62328422       9.21684742       0.00024307    -609.49882783       0.09251669       1.10867320       0.09500168
H       12.36206818       5.39155102       1.59442210       0.00163887    -609.38667854      -0.27569179      -1.12001365      -0.09124178
H        7.32224655      10.19650269       5.05152321      -0.00362863    -608.15369248      -0.35871661      -0.71999037       1.00709468
H       -0.87222886       4.83045101       2.94344425      -0.00206964    -609.44266489      -0.07688022       0.21717953      -0.39053326
H        7.80218172      11.88747025       3.77081299       0.00402673    -609.04867321      -1.08291476       0.64298274      -1.88779378
H       12.98510647       4.31518936       2.85161591       0.00082248    -609.42526631       0.44634547       0.14735308      -0.37675804
H        6.53592205      11.70069599       4.41791487       0.00273510    -609.07419592      -1.41596098       0.43325630      -1.09501157
H       -0.57458603       3.13347864      13.78644371      -0.00563345    -608.02851998      -0.45507291       1.60604545       1.58221051
H        6.18353415       7.53363276       9.34377670       0.00295076    -609.18472031       0.04912960      -0.33439312      -0.28975734
H        9.83172703       5.80536366      15.50710869       0.01143589    -608.91177789      -0.33358933       0.31405685       0.08730628
H        1.47591126      11.82521152      10.49569511       0.00066965    -609.17947289       0.17133603       0.97194740      -0.24722494
H        1.12094772       1.13553882       9.79827309       0.00042638    -609.17317949       0.26267990      -0.51933264      -0.08494060
H        6.52618742       6.63979578       7.79121542       0.00307263    -609.24992423      -0.36237797       0.26126959       1.25944176
H        6.12496471       5.43107986      10.49993801      -0.00245383    -609.08261344      -0.03694095       0.32270607       0.05240498
H       11.48274231       0.23046055       8.95549488      -0.00109413    -609.32291197      -0.40213117      -0.01547497       0.68442218
H       15.61067677       6.01720762      -3.67059088       0.01033298    -608.94707749       1.34077021      -0.88008115       1.62067859
H       11.34893227      13.50179863      10.34563637      -0.00239551    -609.18869751      -0.09942745       0.75822566      -0.12992714
H        6.41786957       4.55633640       8.92371655      -0.00276285    -609.02278710       0.11304497       0.15847476      -0.54689334
H       11.43664074      11.83078671      10.54767418      -0.00410942    -609.25596230       0.09518768      -0.91395056       0.31804070
H        9.81952572       6.56599283       2.89000201       0.01059433    -608.94732542       0.04521016      -0.23322529       0.00295712
H        1.31339383      -1.39257979       4.07948732      -0.00361524    -609.37092303      -0.43660899       0.26303093      -0.07276779
H        5.26861620       4.94803333       3.62215447      -0.00344259    -608.96404003      -0.96436002       0.00575738       0.66169921
H        1.92979002      12.63366508       3.55313396      -0.00254293    -609.41512084      -0.51814529      -1.22277742      -0.09574486
H        6.91289377       4.31780672       3.39038301      -0.00486889    -609.03620975       0.60326457       0.69966146      -0.08861495
H        1.10192764      -0.94912493       2.38631654      -0.00301100    -609.30995300      -0.32220420      -0.09672958      -0.52889176
H       12.02945042      12.99635601       3.38689852      -0.00029987    -609.38841784      -0.66949255       0.24803250      -0.65739344
H        7.67051125       6.56667757       3.65144849       0.00026214    -609.19476338      -0.09975641       0.07783858       0.82081914
H       11.97588348      12.02472973       4.76681137      -0.00078824    -609.47001007       0.56148153       0.03920172      -2.47428776
H       10.82116699       6.63947630       8.53228664      -0.00694355    -607.98647968      -0.01711699       0.22818140       0.66744232
H        6.16329050       7.14016199       4.34943724       0.00131310    -609.17804164      -0.00294356      -0.95193558      -0.79321798
H       11.19941616      -1.04286540       3.26302791      -0.00042666    -609.40954607       0.07613536       1.54058511       0.16240137
96
Lattice="12.299111366271973 0.0 0.0 0.397482693195343 12.292691230773926 0.0 0.0 0.0 12.580405235290527" Properties=species:S:1:pos:R:3:initial_charges:R:1:energies:R:1:forces:R:3 original_dataset_index=12 energy=-58468.94057083124 pbc="F F F"
Pb       9.59250927       9.16885281      12.53275490      -0.14187497    -606.17382020      -0.07806416       0.37195524       0.13570136
Pb       3.11012173       2.97713709      12.46348572      -0.14986837    -606.30123147       0.07799466       0.11632428       0.39383846
Pb       3.48580456       9.12166119      12.60389042      -0.13997495    -606.17300797      -0.18574394       0.17996895      -0.11407296
Pb       9.29262161       3.15793514      12.63094997      -0.14801863    -606.22701573      -0.07888652      -0.28733088      -0.00889042
Pb       9.57937050       9.18533897       6.29729176      -0.14225432    -606.20243800      -0.21068031      -0.14941818      -0.14584281
Pb       3.15448380       3.08445501       6.28860807      -0.14768514    -606.31643583       0.08165087      -0.03372478      -0.17102116
Pb       9.32767010       2.97523141       6.28829432      -0.13905153    -606.17438709       0.04698173       0.28416382      -0.10834590
Pb       3.41350985       9.22460651       6.23164797      -0.13973022    -606.18902780      -0.01728431       0.08547552       0.34518421
I        9.87901878       8.63902473       9.40538311       0.09731924    -608.61999860      -0.05863157       0.05503285       0.07569168
I        3.42213821       2.55115843       9.51169300       0.08966173    -608.57754408       0.04035802      -0.03080447      -0.52539617
I        9.74914265       2.84102869       3.07118392       0.09012009    -608.57591678       0.25760811      -0.12849816       0.66023443
I        3.97395468       8.93703651       3.21456265       0.10133642    -608.66415494       0.12546530       0.00559266      -0.15239709
I        2.85104084       3.67004514       3.07415199       0.09187767    -608.55802011       0.24776898      -0.26053043       0.27620415
I        9.38496113       9.77223778       3.17020249       0.09406053    -608.55875175      -0.09366485      -0.21771160      -0.07509026
I        2.79098535       9.50850105       9.55439281       0.09191336    -608.58908211       0.00305390       0.00570096      -0.35051664
I        8.90298748       3.25058532       9.59841728       0.10371106    -608.68771636      -0.26104370       0.14519824      -0.69253221
I        0.05073878       2.22532773      12.40419292       0.08187095    -608.52380483       0.03861721      -0.01656089      -0.21207390
I        6.48547935       8.37583542      12.32763863       0.09189289    -608.58840096      -0.06282313      -0.05308124       0.09625046
I       10.17370605       6.15871191       0.15111068       0.09375077    -608.63225006       0.32758335       0.01290897       0.16790622
I        4.28515482      12.30792713       0.22031803       0.08207090    -608.50201609       0.12544191      -0.38267591       0.06582154
I       12.49439526      10.06113243       6.03070354       0.09813374    -608.65312922       0.35836285       0.01653408       0.17914172
I        6.21140289       3.98027968       6.03417444       0.08347111    -608.49816562       0.31639364      -0.17485543       0.30687876
I        2.45305800       6.13375473       6.47714043       0.08959371    -608.58214470      -0.03043421       0.37320753      -0.00464217
I        8.28706455       0.11244244       6.53842592       0.09580854    -608.59547837      -0.05230576      -0.42516208      -0.17813808
I       12.53049088      10.11864376       0.12887478       0.09120473    -608.57415410       0.25200201      -0.05661797      -0.05204646
I        6.26176834       3.94115448       0.24933444       0.08192898    -608.45663198      -0.29638520      -0.18785626      -0.10483821
I        2.40329957       6.12066126      12.43210506       0.09738683    -608.65591897      -0.13181755       0.23948697      -0.28173081
I        8.35587692       0.10525351      12.36261463       0.08908436    -608.53961722       0.01834824      -0.20538815      -0.08481089
I        0.17813852       2.05002975       6.58358288       0.08722901    -608.55660613      -0.24576552       0.08745262      -0.13715698
I        6.37809896       8.35736179       6.53582525       0.09181726    -608.60522786       0.17483898      -0.09598382      -0.00736350
I       10.35021305       6.07131815       6.08211279       0.08428842    -608.53837560      -0.04622683       0.18031292      -0.13544770
I        4.44059086      12.37789536       6.10132933       0.08667138    -608.56444967       0.06707929      -0.45136680      -0.11699401
N        5.88253498       5.80137062       3.27252030       0.04889626    -610.53275535       1.01136457       2.23333395      -0.59721471
N       12.15027332      11.89401913       3.09545732       0.04475794    -610.41885345      -1.52047736      -0.89272681      -0.59163575
N        0.42185125       6.55677509       9.30034351       0.04667157    -610.47876988       4.22186558      -4.31223978       5.37881587
N        6.33211756       0.32451567       9.38282681       0.04955318    -610.49622855       1.67691472       0.75498890       1.65991905
N        7.06849766       6.29042721       9.38369656       0.04497743    -610.39407834       1.52126190      -2.24739562      -1.74108740
N        0.12096623       0.08068951       9.43748856       0.04649987    -610.44189493      -0.33284587      -3.92262643      -2.65497372
N       12.53013706       5.83492088       3.03356528       0.04831418    -610.46334842      -0.83298898      -0.27966014       0.44467058
N        6.51701069      11.74230576       3.01813698       0.04831732    -610.37909569      -0.11703681      -0.99093853       3.10266491
C        5.65229702       5.98859167       9.65266228      -0.16365933    -610.06361446      -2.51192577       2.22932953      -0.19805927
C       11.35136223      12.31543159       9.37299252      -0.16843235    -610.09011008      -0.90411968       2.24924043      -5.09902272
C        0.53354430       7.30332184       2.94977760      -0.16777894    -610.08256478      -1.98610129       0.02079690      -0.06399723
C        6.50431585       0.92615724       3.00679994      -0.16808179    -610.05202340       3.48802661      -2.61759078       1.73654852
C        7.36153364       5.86372328       2.94994640      -0.16603634    -610.03021519       0.37277176      -2.07284935       1.30980447
C        0.83506006       0.10862716       2.99148464      -0.16360021    -610.07261575       1.26117119       0.66014966      -1.49031345
C       12.33006859       5.15354872       9.23889542      -0.16926473    -610.07156439      -1.41942851      -1.45506188       0.52934169
C        6.65760136      11.15514565       9.59930134      -0.16345282    -610.05894128      -1.78081639      -0.65395558      -2.75166690
H       11.33593845       5.06884336       9.81035900      -0.00406578    -609.43187715       1.29176797      -0.07828743      -0.90808654
H        5.91532183      11.03742027      10.36531639      -0.00351422    -609.30755515      -0.48093498      -0.58078633       0.40852108
H       12.22157192       4.82630587       8.18293095      -0.00482762    -609.36000728      -0.02322747       0.15537286       0.62305178
H        6.28714323      10.65990925       8.55546474      -0.00402324    -609.42806903       0.95436471       0.86119209       2.47894931
H        0.78671831       4.54261494       9.77654171      -0.00459629    -609.37463070      -0.31750330       0.26686856      -0.39227236
H        7.60590363      10.79983616       9.95341015      -0.00467192    -609.27301738       0.52547639      -0.34149894      -0.11767685
H        0.84332240       7.48420095       1.92042959      -0.00403786    -609.39920301       0.12728899       0.09840056      -0.00926478
H        7.06491661       1.04646814       2.13569188      -0.00358979    -609.25099761       0.98693925       0.42267141      -1.53002177
H        1.26399112       7.61983633       3.65245056      -0.00481469    -609.28047845       0.71579593       0.06950603       0.68677099
H        7.22927094       1.14708912       3.89187288      -0.00317718    -609.42349749      -1.47425174      -0.53092444      -1.27788315
H       11.85303211       7.82822466       3.12221146      -0.00349504    -609.44337495       0.88908825      -0.23273392       0.00914516
H        5.71277332       1.54195976       2.99463892      -0.00504676    -609.15971266      -3.13274317       2.01163594       0.12085678
H       12.01045227       7.11421442       9.17590046       0.00160387    -609.18159244      -4.96603391       4.40687508      -1.28876695
H        5.60588217       0.87440854       9.84441280       0.00025168    -609.46336894      -0.61775167      -0.03661432       0.31570766
H        0.78665352       6.68425417      10.33542442       0.00088212    -609.43199408      -0.66192726       0.15722166      -1.48749874
H        7.23983574       0.65901405       9.83231544       0.00019827    -609.47119789      -0.85062341      -0.02152451      -0.61319962
H        1.22199929       6.72580528       8.78248215       0.00149320    -609.32874769       2.05530287       0.83089706      -2.12009175
H        6.30638123       0.60744679       8.42394733       0.00044337    -609.44276990       0.27698200       0.13617604      -1.29093980
H       12.45426655       5.34024286       3.99351478       0.00036722    -609.50390597      -0.16831272       1.32401475      -1.33464402
H        5.59046936      11.66663647       3.59222913      -0.00067051    -609.47689858       1.32171829      -0.15435434      -1.26501119
H        0.95843846       5.31575918       2.53673530       0.00019298    -609.45837913       0.37605592      -0.37581696      -0.20726646
H        7.24996328      11.26980305       3.73111606      -0.00147278    -609.44756591      -1.44938814       0.61121078      -1.99582362
H       11.64336014       5.74661636       2.47101641      -0.00046047    -609.47158597       0.44136714      -0.54968305       0.56179689
H        6.47708988      11.15460491       2.11130285       0.00001920    -609.42608327       0.04475394       1.36648049       1.30473937
H        0.38373464       0.44946548      10.29289436       0.00095552    -609.36686221       1.11196543       0.74677822       2.82850200
H        7.40338182       6.88479280      10.11516380       0.00022251    -609.42710623       0.69898339       0.94418770       0.74856778
H        7.57066202       5.29948235       9.52411270      -0.00030916    -609.41205633      -0.31655769       1.82711037      -0.41385376
H        0.91549802      11.33143711       9.23475456      -0.00019307    -609.40603741      -0.38312701       2.25655120       1.05303024
H        0.56654215       0.65076536       8.71437454       0.00066253    -609.41828030      -0.25637659       0.50041031      -0.62350221
H        7.42044401       6.69847775       8.37046432       0.00052608    -609.39420222      -1.54532975      -0.84650592       2.42875980
H        4.96728563       6.98640299       9.56867599      -0.00284315    -609.40244215       1.65950172      -2.12110326       0.32461408
H       10.45844746       1.05180538       9.18054962      -0.00267943    -609.40227138       1.29068675      -1.35085353       0.19085765
H        5.49010324       5.49046516      10.65778828      -0.00365848    -609.33996344       0.53208587       0.69367767      -0.96192569
H       10.88079071      11.97902584      10.18497944      -0.00454531    -609.12503203      -1.08666140      -1.52755589       3.85193792
H        5.30601883       5.33335400       8.87118149      -0.00320190    -609.26322872      -0.23639035      -0.46887029      -0.40092097
H       10.96775436      11.64439392       8.53599834      -0.00324535    -609.40466721       0.95419665       0.78926017       0.69741614
H        7.40855026       6.65163183       2.27821279      -0.00355757    -609.24061038       0.60846045       1.72664948      -1.29459511
H        0.92372316       1.04240000       2.26189470      -0.00359199    -609.36033699      -0.25554389      -1.99574918       1.49384515
H        7.65398264       4.95233822       2.36636376      -0.00389657    -609.32611266      -0.18598546       0.64288682       0.93370630
H        1.82224143      11.50676250       2.58747149      -0.00219701    -609.40342785      -0.42648865       1.34291522       0.36285296
H        8.00787544       6.05021429       3.88114023      -0.00482701    -609.41463451      -1.09068230      -0.38613016      -1.14359641
H        1.21352708       0.33247951       4.00154257      -0.00330324    -609.31840767      -0.11623495       0.22759089      -0.29801689
H       12.10161495      11.31792450       3.99085474      -0.00000577    -609.41334307      -0.51602487       0.88023124      -0.30549403
H        5.70744944       5.83159161       4.24486876       0.00087005    -609.41485881      -0.08456041      -0.85805334       2.00153491
H       12.03369999      11.11092377       2.37087083      -0.00027075    -609.45081366      -0.06520786       1.04789988       0.25643835
H        5.25128078       5.15479422       2.82418156       0.00039225    -609.40927674      -0.11750463      -0.99465336      -0.54490278
H        5.54967451       6.74517918       3.05004215       0.00056282    -609.43698876      -0.55504491       0.30886935      -0.56125642
H       10.91090584       0.28449473       2.93440366      -0.00028038    -609.45226465       1.66021046      -0.90638608       0.68761112
96
Lattice="12.299111366271973 0.0 0.0 0.397482693195343 12.292691230773926 0.0 0.0 0.0 12.580405235290527" Properties=species:S:1:pos:R:3:initial_charges:R:1:energies:R:1:forces:R:3 original_dataset_index=271 energy=-58453.86718447693 pbc="F F F"
Pb       9.96645069       9.56607914      12.03184223      -0.14575301    -606.24852853       0.19067628      -0.11367277       1.34011780
Pb       2.46099496       2.96546149      12.24197006      -0.12143296    -605.87081224       0.57051089      -0.04706976      -0.10100590
Pb       3.57037044       8.68899250      12.55390835      -0.14587256    -606.23912355      -0.07258741       0.16468157       0.19912875
Pb       8.61078548       3.68486357      12.63511848      -0.12587486    -605.75284513       0.09107017       0.08348338       0.90989082
Pb       9.76316929       8.66896820       6.30347109      -0.12378713    -605.74640725       0.35483507      -0.45890153      -0.66866965
Pb       2.91173768       3.48495293       6.23789930      -0.14371498    -606.13847811       0.02775876      -0.59135075      -0.11668560
Pb       9.32427979       2.76483440       6.70571375      -0.12413241    -605.76640908       0.17483633       0.32620744       0.36658910
Pb       3.42186594       9.34249496       5.98560715      -0.14532065    -606.11452726      -0.09870580       1.04963621       1.07486756
I        9.91857624       8.62389278       9.25290680       0.09741604    -608.62705808      -0.01745174      -0.36691814      -0.35661733
I        3.67226911       3.32505345       9.20073795       0.09504755    -608.61464087      -0.12160219       0.22749442       0.83416876
I        9.52456760       2.40522766       3.82061195       0.09726059    -608.49492898      -0.38179180       0.83498382      -1.15609495
I        4.26758575       9.68054390       3.29561186       0.08947869    -608.44945632       0.12114461      -0.48812942      -0.74005907
I        2.69350791       3.13842797       3.09991860       0.09442442    -608.51963397       0.53838905      -0.22961859      -0.32555429
I        9.62750816       9.43218136       2.73904228       0.06913117    -608.34069845       0.00255947      -0.08051637       0.29488425
I        3.62348843       9.20640755       9.68511772       0.08313188    -608.46240826      -0.06174346       0.09911335      -0.32553713
I        9.22361374       3.31059980       9.90308475       0.08312972    -608.49079507      -0.02592782       0.02657309      -0.72453303
I       -0.60153949       1.96804690      13.07306576       0.14206848    -609.00339253      -0.57404063      -0.30010611      -0.28726910
I        6.75595093       8.78573132      12.41725159       0.06057357    -608.22862967       0.01811365       0.20517317       0.18031538
I       10.21809959       6.32804775       0.12006092       0.07586899    -608.39133379      -0.41165305      -0.22000370      -0.08592651
I        4.27547264      12.30639839       0.04147436       0.09589209    -608.49414066      -0.34657765       0.28962555      -0.41370754
I       12.67045975       9.86657047       6.29014206       0.07872706    -608.47520601      -0.22891169      -0.07008187      -0.12997057
I        6.23364019       3.02584648       5.93617249       0.08544451    -608.35616203       0.12502921       0.90644768       0.93642333
I        3.23868823       6.50819111       5.85572433       0.07559451    -608.41442249      -0.07307317      -0.80474277      -0.13285468
I        8.90518570      -0.48047039       5.98688173       0.14425267    -608.97810082       0.68420636       1.50095110      -0.28355840
I       12.95903873      10.15173244       0.29447678       0.07689327    -608.32612400      -0.84217043      -0.40289561      -0.70467610
I        5.54095221       3.81616688       0.49472660       0.08605292    -608.51218425      -0.05014120       0.06312941       0.05582776
I        1.60550022       6.16203594      12.28288555       0.08569323    -608.43215150       0.61999720      -0.41508051      -0.02665962
I        8.10862350       0.09089454      12.62186337       0.12086780    -608.75631327       0.70634333       0.60126371      -0.52825858
I        0.21242271       2.06776786       6.33652592       0.08182050    -608.45080440      -0.40128719       0.02198846       0.36476512
I        6.46802664       9.08487034       6.94608831       0.08488836    -608.48253170       0.62677492      -0.14251741      -0.12096229
I       10.23657608       5.65143585       5.99288177       0.08942018    -608.57317543      -0.21468983      -0.01219571      -0.04176248
I        4.24039221      12.67080212       6.30039310       0.06444544    -608.22916778      -0.38458442      -0.41578227      -0.05535438
N        6.33388615       6.27369785       4.12054491       0.00688402    -610.35613311      -1.22356601       4.54911621      -0.10746395
N       11.82589722      12.18412399       3.58002257       0.04764558    -610.50101683       1.39374133      -0.76799292       1.00366147
N        1.33233893       6.57327795       8.96606350       0.00386396    -610.69993506      -1.22896900       1.05866507      -0.95752643
N        5.14790630       0.23708604       9.44987774       0.04656260    -610.53334291       2.61803149      -0.65065105       1.79151456
N        7.05511427       6.39563179       9.51529789       0.01208886    -610.28698368       0.66332266      -0.55628166      -1.26539515
N        0.62591732      -0.12518162       9.55973530       0.00299947    -610.70986301       2.15918224      -0.12013380       0.56599096
N       12.48875713       5.06455374       2.53035903       0.04979774    -610.45178141       1.29212667      -2.30397760       2.02779087
N        6.36090517      12.10441875       2.58040476       0.04208906    -610.20523128       3.97451390       2.94983666      -3.32627408
C        6.33534098       5.97868204      10.47628784      -0.12140685    -610.12538165      -1.56714990       0.24782556       0.95086409
C       11.93714046      12.39302635       9.49005985      -0.16368452    -609.76933968      -2.13329187      -2.34240758       0.88875076
C        0.39017016       6.42959499       3.03041673      -0.17196895    -610.02306581      -0.61404576      -0.14070556       0.87116578
C        6.15199518       1.10116386       3.38762689      -0.20310429    -609.75523026       1.40471470       0.05040740       0.46906200
C        6.16548347       5.04492760       4.03906965      -0.11448573    -609.94454288      -0.64351450      -6.25733915      -2.91837037
C        0.58807260       0.04888484       3.35570335      -0.18980229    -609.99452988      -0.62400769       0.48286700       0.98819096
C       12.48986912       5.65522289       8.86562538      -0.16231945    -609.91884226       1.89663498      -0.44206592       0.84160118
C        6.95182705      12.52444649       8.87706566      -0.16576470    -610.09962814       0.35845151       0.53875254       1.27055077
H       11.79726791       5.52067327       9.69669056      -0.00154051    -609.20082509       0.41514486      -0.20904843       1.10768142
H        7.03105211      13.34599876       8.16080952      -0.00311352    -609.37896645      -0.03229325       0.02657405       0.10235779
H       11.78129768       5.89170408       8.13470936      -0.00347887    -609.06270295      -0.57621955       0.92433840      -1.75725909
H        7.65228558      12.68122673       9.75701427      -0.00216092    -609.42281665      -0.57638356      -0.16495971      -1.13071243
H        0.65155983       4.70118380       8.55490780      -0.00359966    -609.28082742      -0.52008914      -0.11742568       0.31057511
H        7.15775537      11.59656334       8.35518360      -0.00383023    -609.33910693      -0.02383101      -0.29572033       0.10174495
H       -0.28223950       6.53683901       3.88359332      -0.00335869    -609.37440261       0.10052973       0.07482631       0.16122773
H        7.01971626       1.15330565       4.02203941      -0.00421793    -608.96730271       0.55494466      -0.14198322      -0.16224011
H        0.08089649       7.10565805       2.29362106      -0.00456146    -609.25548526      -0.17218432       1.35520624      -1.16307323
H        5.29200268       1.11702240       4.00430632      -0.00190106    -609.32658285      -1.04562923       0.55737008       0.43059189
H       13.73265362       6.53873253       3.36169672      -0.00394592    -609.38873526      -0.24024616       0.02750784      -0.33451799
H        6.10808039       1.89754355       2.60160875       0.00363795    -609.26663781       0.20237788       0.14671820       0.85121962
H        5.97973776      12.94032860      14.61154175       0.00711118    -609.02935116      -2.56411938      -2.91890240      -0.87772571
H        5.15493631       0.02383529      10.50139332      -0.00012151    -609.46148728      -0.16022343       0.60182431      -0.85531516
H        2.07710934       6.30767584       9.55381012       0.00080586    -609.17141463       0.82542017      -1.16724774       0.72596403
H        4.71338415       1.12547457       9.26989937      -0.00108146    -609.39384221      -0.74422040       1.06735448      -0.01245434
H        1.17791998       7.52826071       9.28634167       0.00149932    -609.25585763      -0.75276748      -0.03647180      -0.29901158
H        4.60333633      -0.48772568       9.07370949      -0.00014319    -609.45008695      -1.25807290      -1.40194444      -1.14210529
H       12.99238300       4.82096386       1.65510321       0.00048522    -609.44066356      -0.22190421       0.66656895      -0.10447497
H        8.20634079      10.68794155       6.32870197      -0.00243902    -608.03951849      -1.62704189      -0.89211575       0.54641741
H       -0.72109520       4.56562948       2.52593446       0.00062309    -609.48227982      -0.14450598       1.01169348       0.08547164
H        6.17109966      11.26638412       3.07944965      -0.00360022    -608.95059312      -1.48152697      -1.11589149       0.43142952
H       13.08520794       4.52985430       3.26779032       0.00037546    -609.45119141      -0.86770217      -0.13073955      -1.23659563
H        7.16567135      11.90257835       1.80480695      -0.00401345    -609.44068295      -0.89935916       0.26911872       2.15050844
H       -2.10407901       1.02399945      12.55656624      -0.00188051    -608.11999235       0.33803418       0.10751497       0.23975792
H        7.20803642       5.76031399       8.71723366       0.00324409    -609.27012290      -0.27846278       0.44236861       0.09937971
H        8.68158340       5.80513763      15.41025448       0.01129304    -608.98500053       0.19918519       0.15834965       0.28818587
H        1.67460513      11.51382828      10.09023666       0.00354306    -609.20745764      -2.03021108       0.78865147      -0.56626900
H        1.16547811       0.45945516       8.94280910       0.00107739    -609.27699302       0.08605012       0.06882123      -0.15809870
H        7.58045769       7.29784441       9.44620705       0.00211955    -609.15747295      -0.15191722      -0.44716108       0.60616412
H        5.57536888       5.18265390      10.44741821      -0.00269811    -608.99277683       0.84338614      -0.40891947      -0.78062257
H       10.92229939      -0.82132006       9.12993145      -0.00054956    -609.08555086       0.84684610       0.70578401       0.13861939
H       26.42828560      -1.04831028       2.23458123       0.01623596    -608.69580891       0.72989184      -0.33964206       3.41687632
H       11.73054600      13.12190437       8.70950031      -0.00460544    -609.17507087      -0.03300887       0.47640775       0.27551773
H        6.22586918       6.55022526      11.39453030      -0.00226764    -608.98197230       0.43378691       0.46873643       0.01284474
H       11.33689880      12.57878399      10.47395134      -0.00251866    -609.12817279       1.12443560       0.46060472      -0.90684596
H        8.95439243       5.88694048       3.53604817       0.01244878    -608.95583965       0.03486040      -0.04405959      -0.48797524
H        1.06491208      -0.75396478       3.92096519      -0.00687335    -609.34163829      -0.03924930       0.07075167       0.08647051
H        5.08446407       4.68593264       3.78295135      -0.00403905    -609.03819644       1.91839231       0.55410207       0.22059246
H        1.36071396      13.28279400       3.70542216      -0.00372989    -609.31726491      -0.20717170       0.61055128       0.41069872
H        7.01445913       4.35002422       3.61663246      -0.00377532    -608.63621471      -1.35453168       1.16157684       1.38568129
H        0.81580198      -0.07000710       2.33356142      -0.00029769    -608.94314754      -0.30010806       0.34292781      -0.83445754
H       11.17573452      12.91832924       3.28297949      -0.00133725    -609.41800486       0.13774455       0.60404059       0.02214363
H        7.06911755       6.80966187       4.49253082       0.00312718    -609.04972069       1.99552721       0.32990821       0.30129196
H       11.77949524      12.01680851       4.60178757       0.00014536    -609.48038974      -0.65516109       0.13841503      -0.25448560
H       14.63481236      11.19242191       1.58390212       0.01083065    -608.73065327       1.20451476      -0.59520628      -4.10306678
H        5.59837389       6.93343067       3.84310007       0.00345842    -609.18702662      -0.59564604      -0.18165046       0.67559287
H       11.13466740      -0.96559185       3.13743234      -0.00141080    -609.53464096      -0.70876624      -1.14660891      -0.34307358
96
Lattice="12.299111366271973 0.0 0.0 0.397482693195343 12.292691230773926 0.0 0.0 0.0 12.580405235290527" Properties=species:S:1:pos:R:3:initial_charges:R:1:energies:R:1:forces:R:3 original_dataset_index=153 energy=-58458.29486229622 pbc="F F F"
Pb       9.92858315       9.97165680      12.32397270      -0.12895024    -605.80401385       0.34275241      -1.81063619      -0.39173945
Pb       2.51132107       2.74020648      12.25403404      -0.11657966    -605.65842058      -0.48017702      -0.23791881      -0.38384167
Pb       3.77831340       8.62630558      12.55039406      -0.12766157    -605.92360760       0.30251622       0.42422066       0.04642981
Pb       8.53298950       3.46790648      13.03934765      -0.11482885    -605.50037767       1.43158861       0.18727352      -0.12442140
Pb       9.35487080       8.77092648       6.08615255      -0.14160620    -606.18262722       1.18247290       0.08955875       0.28956789
Pb       2.79423690       3.15159321       6.00156403      -0.13827805    -606.09182907       0.49345581       0.71187744       0.14130074
Pb       9.51540852       2.54673266       6.74455833      -0.13830131    -606.11169390      -0.23003814       0.35720351      -0.89615475
Pb       3.30233812       9.83482075       6.53856277      -0.13901928    -605.90478170       0.36487395      -1.11862852      -2.15779691
I       10.36146259       8.37020683       9.18557262       0.06656380    -608.25486131      -0.19552731       0.14560982      -0.16017714
I        3.66972613       3.10225630       9.34476757       0.08992916    -608.49107493      -0.41088158       0.38797967       0.04527151
I        9.10456753       2.88663793       3.31592917       0.07289554    -608.33778450       0.56641389      -0.78476912      -0.01058936
I        4.54915857       9.32667160       3.05577302       0.09971540    -608.60589154       0.08137040      -0.16850992       0.01299997
I        2.31460690       3.49987531       3.00902843       0.08144762    -608.51136446       0.12428321      -0.23411644       0.05857180
I        9.68165493       9.26227093       2.75412774       0.09258948    -608.58310348       0.09129614       0.12298164       0.18221449
I        3.34860086       9.72534084       9.22185040       0.07490164    -608.36494993      -0.01505532      -0.22502071       2.56977852
I        9.50810432       3.14394522       9.53422451       0.08586058    -608.48054925      -0.20101724       0.02014906       0.97917332
I       -0.65381676       2.28483176      12.90512085       0.14841439    -608.94299680       1.39037946       2.24797331      -3.27595919
I        6.84951210       8.47929573      12.44281673       0.07808068    -608.44883633      -0.22562620       0.01300828      -0.13281136
I       10.10862160       6.15170813      -0.26878503       0.08206509    -608.49242244      -0.06745727      -0.36039400       0.25751209
I        3.85885739      11.89265823       0.21130046       0.08216318    -608.45865773       0.61494952       0.67928554      -0.31675663
I       12.76762676       9.94441605       5.88780165       0.07963546    -608.36486978      -0.81786176      -0.08516679       0.47775218
I        6.41226721       3.99835539       6.44308949       0.09308968    -608.59450385       0.10008961       0.10251944      -0.17796892
I        2.80729508       6.75641012       5.85009432       0.06292786    -608.25064391       0.12445140      -0.69955757      -0.06603747
I        8.10420036      -0.20932063       6.19369078       0.07975468    -608.47859470       0.27248476      -0.11915795       0.24602627
I       12.95477962      10.28972912       0.07044270       0.07726203    -608.34240651      -0.57894313      -0.08146758      -0.96096498
I        5.45865011       3.57473922       0.07830710       0.16334268    -609.00501523      -1.73146086      -1.03901012       2.77987210
I        2.28236008       5.82980251      12.78452682       0.07908303    -608.40767247       0.01652229       0.16895120      -0.50702770
I        8.49258995       0.27306044      12.70924377       0.09487753    -608.54552508      -0.63955778       1.14881756       0.51178696
I        0.33332682       1.62112832       6.56151438       0.09667104    -608.55607816      -0.69204814       0.20140707      -0.32442720
I        6.71261120       8.48031425       7.07853413       0.08587834    -608.50788349      -1.02447661      -0.08357746       0.03616805
I       10.59456444       5.75940704       6.00467014       0.06900884    -608.37504275      -0.13041462       0.03924871      -0.22401933
I        4.30947304      12.60105515       6.30886602       0.08916426    -608.55825701       0.69543879       0.66969156      -0.08918484
N        6.15679693       6.03499365       3.48361659       0.04775064    -610.44159162       4.43809792       2.63443960       4.51166086
N       12.55504513      12.06540680       3.53879070       0.05223288    -610.46897257       0.46884144       3.44021624      -0.96864140
N        1.15760362       6.30297804       9.04670525       0.00322304    -610.73017598      -4.10495496       2.52228267       5.06852268
N        5.26905823       0.33100826       9.71821022       0.04593538    -610.45895558       0.48597482       0.43693218      -2.85516785
N        7.61731529       6.10249615       9.33149338       0.04935354    -610.53459314       1.91701414      -3.03201018       4.23846392
N        0.12038536      -0.01614766       9.32371426       0.00888459    -610.62253010      -0.26831087       0.28335088       3.46833849
N       12.54960155       6.84845972       2.74365306       0.04907501    -610.47492326      -0.83175442       1.34419706       1.73095207
N        6.94313860      11.89561844       3.12605476       0.04337417    -610.50444314      -3.69620282      -0.68175426      -1.74307651
C        6.43193960       5.75152349      10.17853737      -0.16399440    -609.99132148       1.81273122      -0.36010026      -1.09270924
C       11.44797421      11.87049103       9.65857697      -0.17196846    -609.97108134       1.45036615      -0.05432863      -0.79752806
C        1.20581949       8.06420422       2.69177604      -0.16042708    -610.04561471      -1.06111494       0.18810647       2.37102674
C        5.71947670       0.90908957       3.11266351      -0.15905292    -610.04199925       2.06171980       0.64483573       2.87474140
C        7.60698223       5.83187056       3.13362050      -0.16976516    -610.10187637       0.03898072      -0.45538230      -0.76550617
C        1.22846115      -0.36448440       2.95372438      -0.16602252    -610.15066082      -0.34610550       0.32083910      -0.45663682
C       12.76134968       5.09864807       9.27379417      -0.15749547    -609.80414738       0.40286056      -0.79120956       0.06515904
C        7.03297186      12.04451180       9.89188766      -0.16793372    -610.05087692      -2.00156356      -3.61649762       1.08735610
H       13.28560734       4.45462942      10.14540577       0.00073872    -609.05045769      -0.95086747       0.64689232      -1.13980100
H        7.28327274      11.24023438       9.19683266      -0.00308471    -609.33081627      -0.44802681       0.23375197      -0.77652412
H       11.66855431       5.31800461       9.59908772      -0.00352929    -609.15963704       1.52982438      -0.60140023      -0.64977748
H        7.77215767      12.73044300       9.87278748      -0.00400017    -609.15486433       2.26188556       2.61579960      -0.12089664
H        0.58670533       4.52256203       8.29244518      -0.00321970    -609.19644904      -0.76588682       0.09651906       1.33836972
H        7.10395670      11.45221424      10.85686779      -0.00213510    -609.37795981      -0.54952336       1.05360888      -0.70474048
H        0.96345121       8.80337429       1.87541759      -0.00396640    -609.28832405       0.06242115      -1.01529441       1.03820944
H        4.71443224       0.65017694       3.46924043      -0.00309209    -609.29485923       0.25628877       0.42567520      -0.08875046
H        2.19485760       7.65306091       2.68481159      -0.00240260    -609.26331859       0.55718867      -0.39486624      -0.72238761
H        5.76195478       1.26743734       2.13564396      -0.00221984    -609.19395885      -0.42728885       0.27760699      -1.91733474
H       13.52358246       8.46592808       3.75204849      -0.00216920    -609.31388386      -0.52805548       0.16073079      -1.20917740
H        6.28744555       1.79391372       3.71355247      -0.00229628    -609.40436215      -1.36415390      -2.34689378      -0.73853417
H        6.81778669      16.41394997      11.61529255      -0.00593404    -607.81434221       1.47409124       0.85315333      -1.87214494
H        4.69778156       0.11905031      10.51938248      -0.00199627    -609.42063705      -0.98071213      -0.41022860       0.70985300
H        1.90189362       6.45607090       8.49770355       0.00207700    -609.02998742       3.29167720       0.15646134      -2.50830288
H        5.16261053       1.39220119       9.55836105       0.00167977    -609.44900765       0.59851803      -0.64638906       0.57243352
H        0.98142219       7.09435654       9.78212738       0.00148085    -609.25781566       0.56335674      -1.96991785      -1.96464388
H        4.78876877       0.05745757       8.77436638      -0.00071876    -609.44656545       0.58944325      -0.23452610       1.58482798
H       13.08004570       6.08894014       3.16396046      -0.00125215    -609.42972312       0.23077544      -0.70365987      -0.38932116
H        7.64531422      11.76956367       3.80915618       0.00010064    -609.39556817       1.48401703       0.29712292       1.44528159
H       -0.06444781       6.71978188       1.81028366       0.00003292    -609.40328650      -0.23609869      -1.06054420      -1.49010283
H        7.30673313      11.76639462       2.17443609      -0.00032994    -609.46656960       0.48957693      -0.01405527       0.09094409
H       11.62945843       6.85124302       3.31917691       0.00080362    -609.49530505       1.51717264       0.85742234      -0.47460367
H        6.23792267      11.03542137       3.24932003      -0.00016995    -609.45584016       1.03944562       1.33146791      -0.22244482
H       -1.14220524       1.47552443      14.05025005      -0.00090395    -607.90127603      -1.08413203      -2.25128033       3.13034187
H        7.65538216       6.99023438       8.99179363       0.00079115    -609.31002700      -0.39318710       3.84549978      -1.32476118
H        8.52356911       6.03142595       9.94385719      -0.00170365    -609.46532657      -1.16719640      -0.17980070      -1.19574963
H        1.05274045      12.02412891      10.20471668      -0.00053615    -609.10283967       0.39915323       0.04233550      -2.40861531
H        0.35526919      -0.21459089       8.36114979       0.00034920    -608.96284238       0.75955074      -0.62750392       0.52388644
H        7.67247581       5.50017452       8.55615520      -0.00020678    -609.43486273       0.27730197      -1.36972185      -1.59779221
H        5.76171684       6.48822927       9.91006756      -0.00308151    -609.28379749      -2.20545407       1.30536718      -0.27764681
H       10.42938614       0.22758693       9.12335396      -0.00121723    -609.07892832      -1.83214670       1.79863253       0.26581492
H        6.75739431       5.89381266      11.18810844      -0.00038828    -609.29100315      -0.03286247      -0.04336570       0.77758508
H       11.31767941      11.65563869      10.72832394      -0.00631180    -609.21634873      -0.21906420       0.78681800      -0.32393712
H        6.07476711       4.75646687       9.90859032      -0.00093116    -609.35233049      -0.01532590       0.13163842      -0.25200402
H       11.20067501      11.00389099       9.13123608      -0.00034857    -609.09892784      -0.24933750      -2.16721972      -0.52275071
H        7.88216209       6.15620565       2.09647012      -0.00337212    -609.39090969      -0.59126536      -0.32982101       0.50166132
H        1.76122737      -1.00806618       3.62549877      -0.00455594    -609.38691726       0.47472837      -0.47611211       0.13466487
H        7.72642803       4.75611925       3.32518506      -0.00260902    -609.33358471       0.23487054       0.40390689      -0.40631551
H        2.10518575      12.89679241       2.89117026      -0.00408544    -609.36665503       0.05535934       0.35511524       0.23518847
H        8.33885479       6.30751753       3.78272009      -0.00331266    -609.32154514      -0.45129645       0.39124052       0.53697214
H        1.17076588      -0.76617664       1.92516959      -0.00267642    -609.33321588      -0.08700760       0.10534191       0.81201767
H       12.09233379      12.98678970       3.27871561       0.00305583    -609.50518153       0.31701839      -1.07734613      -0.49211286
H        6.10959721       5.63358688       4.54706860       0.00013466    -609.31077800      -0.28901617       1.31017424      -1.43600090
H       12.65670681      12.29202843       4.54048443       0.00079768    -609.30726792      -0.24923519      -1.04521379       0.60976925
H        5.64810944       5.41195583       3.03527594       0.00250248    -609.26123887      -3.32842057      -3.49934246      -3.20513153
H        5.88659954       7.00128603       3.26747608      -0.00006096    -609.32900168      -0.73235603       0.37818532       0.58557501
H       11.57017136      -0.98752177       3.24844718       0.00100771    -609.36197554      -0.80712266      -0.88970810       0.36740640
96
Lattice="12.299111366271973 0.0 0.0 0.397482693195343 12.292691230773926 0.0 0.0 0.0 12.580405235290527" Properties=species:S:1:pos:R:3:initial_charges:R:1:energies:R:1:forces:R:3 original_dataset_index=155 energy=-58457.6389255587 pbc="F F F"
Pb       9.93960857       9.97742653      12.32256413      -0.12836123    -605.79459483       0.37922392      -1.74153837      -0.42814824
Pb       2.51906419       2.74406338      12.25222301      -0.11937846    -605.71472183      -0.27987434      -0.15248433      -0.11131056
Pb       3.77623653       8.63515663      12.54469776      -0.12778437    -605.93012572       0.14407284       0.39936838       0.12194208
Pb       8.52430153       3.46821046      13.04337120      -0.11314668    -605.45956612       1.03600295       0.27225105      -0.61135730
Pb       9.35475636       8.77101040       6.08354282      -0.14020717    -606.15303398       1.33386461       0.04934010       0.23332280
Pb       2.79453993       3.15385175       6.00390244      -0.13746411    -606.07776200       0.39681252       0.75417349       0.10738839
Pb       9.51669979       2.54605365       6.75122213      -0.13752215    -606.08786032      -0.21747750       0.47429982      -0.87112234
Pb       3.30647659       9.84243774       6.54298973      -0.13317876    -605.77219549       0.37992469      -1.18351305      -2.36166175
I       10.35792065       8.36988735       9.17804337       0.06474856    -608.23478748      -0.32624530       0.13214142      -0.15831910
I        3.66688681       3.11567950       9.36827564       0.09834586    -608.55141444      -0.33918454       0.32647663      -0.04007963
I        9.10507870       2.87641668       3.30052876       0.08437352    -608.43795034       0.64376255      -0.85917320       0.12070820
I        4.55178976       9.33310223       3.05615568       0.09317315    -608.55010024       0.03646868      -0.20681307      -0.02625555
I        2.30866647       3.48898220       3.00130725       0.08046123    -608.49540775       0.09882021      -0.21405476       0.18615373
I        9.68297768       9.25545120       2.74677896       0.09260000    -608.57841062       0.08180455       0.14648351       0.25219064
I        3.35778761       9.71506691       9.20989609       0.07466459    -608.35281242       0.00965611      -0.22671651       2.78682390
I        9.50261879       3.15015459       9.53869629       0.08749302    -608.49443971      -0.25875185       0.04999576       0.94178295
I       -0.65760118       2.27739596      12.91725254       0.12662378    -608.98571784       0.19583407      -0.08166269      -0.19322561
I        6.83926439       8.47788525      12.44722748       0.07968209    -608.47158062      -0.15738003      -0.05280963      -0.12663129
I       10.12326145       6.14114237      -0.25914782       0.08103362    -608.48385388      -0.04095538      -0.25403789       0.32725893
I        3.85687780      11.90227032       0.20499335       0.08377732    -608.47743617       0.63755739       0.61604033      -0.37922679
I       12.76857471       9.92902279       5.88350773       0.09190092    -608.47876480      -0.84472825      -0.02204464       0.43757047
I        6.42502928       3.98791814       6.44349003       0.08954419    -608.56684418       0.11751105       0.04207431       0.06907872
I        2.81191969       6.74693584       5.84774113       0.06821758    -608.30216262       0.17232960      -0.65453287      -0.07080245
I        8.12213326      -0.22287963       6.18604660       0.08448226    -608.52280596       0.22408047      -0.18947963       0.19681873
I       12.95741844      10.28474331       0.08597308       0.07547741    -608.31428213      -0.56702290      -0.14040342      -0.87279321
I        5.45132542       3.57001758       0.08737473       0.16652934    -609.06817864       0.22196335       0.08981241       0.24117730
I        2.27561402       5.81748390      12.78039074       0.07573455    -608.37686635       0.05293745       0.24343939      -0.51206419
I        8.48814011       0.27688518      12.70910549       0.09384140    -608.53108858      -0.65375184       1.06674672       0.53301744
I        0.32186157       1.64541543       6.55432034       0.09240219    -608.52784357      -0.63831254       0.20070201      -0.21014375
I        6.71858406       8.47824097       7.08588266       0.09869831    -608.62983787      -1.05063036      -0.17023362       0.24132478
I       10.59290504       5.74756384       6.00364923       0.06636066    -608.34392356      -0.13441105       0.03509056      -0.22581536
I        4.29127598      12.59880257       6.29838228       0.09276242    -608.58901584       0.76549955       0.67397604      -0.02135793
N        6.16789770       6.09209251       3.50470448       0.04527751    -610.38656155      -2.77599657      -3.09086782      -2.84421515
N       12.55066681      12.08057404       3.50249815       0.05253337    -610.45153066       0.81247681      -2.05036935       1.08207051
N        1.13662148       6.39296150       9.00565434       0.00239666    -610.71432961       0.38331430      -1.84818004      -1.07395940
N        5.30153704       0.33333674       9.73389626       0.04537100    -610.42094064      -1.33942216       0.08274658      -2.33651715
N        7.59077597       6.11798668       9.40861702       0.04053938    -610.44737128      -3.04435740       0.77836934      -5.44287682
N        0.15009217      -0.03742795       9.31878376       0.01137361    -610.57025110      -1.69386973       1.81515792      -0.26015819
N       12.50889301       6.83477068       2.70139599       0.04856734    -610.46633917       1.53762138       0.04569060      -1.46858449
N        6.95999956      11.94599915       3.16532516       0.04527385    -610.49109211      -0.58397007      -0.38179295      -0.12799279
C        6.41131449       5.73597002      10.15712261      -0.20557213    -609.58571815      -1.19654943       2.24596273       0.70143292
C       11.45976067      11.91528893       9.67906475      -0.15563422    -609.77338091       1.09667954      -2.29174576      -3.82789007
C        1.17383206       8.05941963       2.69072580      -0.15955633    -610.07812061       0.11367010      -1.86036947       3.91919538
C        5.74324179       0.93510920       3.13698554      -0.16472104    -610.02582851       1.05936341       0.28869922      -2.05150678
C        7.59059095       5.83358383       3.12373090      -0.16673633    -610.05945021      -0.49509642       0.50712078       3.59372080
C        1.23945761      -0.35428923       2.97010827      -0.16176274    -610.11017621       1.12489643       0.04134450       2.00320342
C       12.74236393       5.08777571       9.23548126      -0.16391549    -609.86995007       2.81440467      -0.05505740      -0.76577043
C        7.06132412      12.08686638       9.89069462      -0.16440848    -610.05291493       1.67405975       1.45441542      -1.00785537
H       13.32637787       4.34382296       9.93155766      -0.00105567    -609.18742367      -1.01830955       1.26549080      -0.01597879
H        7.23738480      11.28805351       9.15072060      -0.00267622    -609.29472777       0.24806077       0.69643233      -0.43564656
H       11.73929024       5.35221577       9.51490021      -0.00436472    -609.18998969      -0.58928247      -0.39797186       0.55311288
H        7.84711552      13.00776958       9.86258984      -0.00247085    -609.37516654      -1.53964101      -2.43965279      -0.04217119
H        0.43482974       4.40574169       8.35921383      -0.00417817    -609.17786521      -0.27570883       0.78062804      -0.19406432
H        7.11363268      11.51678085      10.79135513      -0.00225737    -609.20345613       0.03057835       0.11810398       1.08024677
H        0.89415812       8.82032394       1.99607813      -0.00453191    -609.16601123      -0.12455384       0.16311449      -0.39276325
H        4.75065756       0.79185331       3.56875873      -0.00392512    -609.30591731       0.08855047      -0.11867887      -0.38998522
H        2.20246148       7.63847828       2.69013023      -0.00211622    -609.31996810      -0.58334110       0.25897230      -0.88277521
H        5.80187893       1.28477395       2.03304625      -0.00270526    -609.39912317      -0.88646207      -0.84080867       1.36688579
H       13.46486473       8.36189175       3.80123329      -0.00161088    -609.34208497      -0.34778178       0.24885192      -1.52066286
H        6.25476503       1.76180005       3.58789611      -0.00298792    -609.26455126       0.52176653       0.15721274       1.06912019
H        6.58758211      16.83225250      11.17704010       0.00699882    -608.22732797      -0.27632143      -0.69195735       1.36566771
H        4.71827078       0.10515934      10.59514141      -0.00164974    -609.41324232      -0.04522838       0.05900112      -0.92987157
H        2.00496459       6.51822805       8.35593605       0.00108888    -609.03722729      -2.12804938      -0.32192799       1.92650937
H        5.20827198       1.38569713       9.55491161       0.00125673    -609.43864876       0.31540074      -0.69837077       0.64092798
H        0.87351829       6.99715185       9.76898479      -0.00042243    -609.11656451       0.76135800       0.60428310      -0.25448168
H        4.85282469       0.02181851       8.73577785      -0.00104360    -609.40696215       0.54101742       0.23259702       2.52644462
H       13.08590126       6.05852842       3.11267972      -0.00124696    -609.43517829      -0.37332230       0.02567840      -1.12354177
H        7.66625214      11.69507313       3.93128085       0.00101100    -609.40727170      -0.15028752       1.22375137      -0.61908728
H       -0.21695709       6.68375349       1.72619843      -0.00077274    -609.42620676       0.75584078      -0.42096923       1.25862290
H        7.25900269      11.71344471       2.20661354      -0.00101127    -609.44648500       0.93842959       0.40727149       0.13114312
H       11.75662804       6.85820103       3.35736394      -0.00005856    -609.45208254      -1.24336194       0.81732298       0.90321078
H        6.31790495      11.16609669       3.27994680       0.00097957    -609.45640093      -1.11998582      -0.73673076       0.32543742
H       -1.51406145       1.80075014      14.29736710      -0.00045976    -608.10073575       0.03843081       0.26507235       0.13047709
H        7.54248190       7.15948534       8.85241795      -0.00039479    -609.32212284      -0.49177058      -1.78043256       1.44690227
H        8.43975067       6.11624336       9.85418129      -0.00158532    -609.38073230       3.06748656      -0.51837277       1.93174780
H        1.15262842      12.09605789      10.04810143       0.00115929    -609.13720325       2.08629509      -0.65092416       1.54928580
H        0.45956925      -0.27899978       8.38448334       0.00008381    -609.05840367      -0.13038128      -0.32523828       0.53028010
H        7.58206940       5.49213743       8.51014328      -0.00272453    -609.49190427       0.73602871       0.54726784       1.25108774
H        5.59777021       6.51502037       9.97531414      -0.00378113    -609.34604538       0.60452068      -1.10713818       0.17497064
H       10.36744976       0.36368936       9.07638550      -0.00347528    -609.07878729       0.55041176      -1.50919961       1.84079416
H        6.59437037       5.85788298      11.26486778       0.00144219    -609.04080685       0.21126834       0.26804564      -0.74105213
H       11.37120724      11.61387444      10.74891472      -0.00642473    -609.08264475      -0.23108992       1.20181367      -0.60356361
H        5.94658947       4.73894501       9.91852093       0.00295256    -609.03556798       0.30755670       0.27651530      -0.98032047
H       11.53225040      10.84369659       9.13016891       0.00311231    -609.09848748      -1.65780430       1.76440354       0.96986440
H        7.93081999       6.08076286       2.17355800      -0.00450752    -609.19822887      -0.07394392       0.69812022      -2.05486189
H        1.70578206      -1.15008926       3.73940659      -0.00424696    -609.41306250      -0.44106755       1.88075201      -2.04221731
H        7.65883684       4.79486132       3.36825752      -0.00276218    -609.26284331       0.44899107      -0.45203822      -0.13122466
H        2.11868668      12.96296787       2.92331815      -0.00391432    -609.34718308      -0.22807089      -1.12367430       0.56848173
H        8.23387814       6.36039209       3.86925411      -0.00187139    -609.40457925      -0.35369542      -0.30219947      -0.44549126
H        1.18583298      -0.70484835       1.95605624      -0.00250829    -609.20077929       0.05976706      -0.39844621      -0.17728465
H       12.09713268      12.92019367       3.26004076       0.00220986    -609.37744044      -1.08098355       1.30324244      -0.87418625
H        5.95412350       5.67579842       4.46446609      -0.00069813    -609.39135036       0.37328316       0.58449933      -0.55457992
H       12.63241768      12.06965351       4.55176067       0.00052463    -609.37732027      -0.23586040       0.05609301      -0.32957022
H        5.47244883       5.36479521       2.77559066       0.00049111    -609.40986545       2.11925358       2.57766874       2.42621529
H        5.77805424       7.04089355       3.36364508       0.00109041    -609.36555702       0.08751685       0.35731159       0.19356320
H       11.62765789      -1.09217596       3.28007388       0.00112794    -609.43369788      -0.17213355       0.89117503      -0.09416110
96
Lattice="12.299111366271973 0.0 0.0 0.397482693195343 12.292691230773926 0.0 0.0 0.0 12.580405235290527" Properties=species:S:1:pos:R:3:initial_charges:R:1:energies:R:1:forces:R:3 original_dataset_index=29 energy=-58464.43397813392 pbc="F F F"
Pb       9.68757439       9.11791039      12.46512318      -0.13335609    -605.90330801      -0.50485087       0.94028609       0.24436058
Pb       2.98869896       2.84170485      12.29769421      -0.14685014    -606.14716461      -0.12519339       0.77593630       1.74380930
Pb       3.65968919       8.98007965      12.63744164      -0.13736342    -606.08137111      -0.63255748       0.17114825      -0.22616847
Pb       9.23203087       3.30292058      12.71553421      -0.14663446    -606.06122689      -0.15511564      -0.51003371      -0.14555764
Pb       9.65449429       9.14251518       6.30533791      -0.13715361    -606.03665404      -0.92647727      -0.53111662      -0.20898355
Pb       3.11584473       3.12207198       6.28258181      -0.14822569    -606.29975778       0.03332852      -0.11944319      -0.29347426
Pb       9.31722546       2.84169841       6.28284740      -0.12345847    -605.81720222       0.35026059       0.89595858      -0.23024000
Pb       3.45494056       9.25348091       6.15358448      -0.13553438    -606.06291188      -0.32077618       0.18902942       0.85527274
I       10.04118061       8.60972118       9.36025715       0.10890476    -608.67807300      -0.09898971       0.19484974       0.23424735
I        3.40613127       2.61255527       9.58692551       0.07796431    -608.44053841       0.26334977      -0.03075107      -2.07329694
I        9.56575489       2.89731646       3.00193453       0.08395788    -608.45017536       0.72876962      -0.40503103       1.68051721
I        4.06891870       8.92742538       3.31183290       0.10505272    -608.68543513       0.31250251       0.14240656      -0.65056438
I        2.73954248       3.74898767       2.98484802       0.08283076    -608.44036180       0.46366593      -0.59775356       0.66110401
I        9.55026340       9.78122139       3.21041679       0.09918454    -608.52308856      -0.65494621      -0.64076883      -0.24524447
I        2.72182393       9.57268047       9.72769356       0.07825951    -608.42950634       0.18172646      -0.14532719      -0.41683663
I        9.08099937       3.14180017       9.80691242       0.09350812    -608.52787167      -0.45516218       0.45668045      -1.54678547
I       -0.04229874       2.25433326      12.49290085       0.07863232    -608.47566928       0.10727168      -0.14989086      -0.37613789
I        6.52939939       8.41580200      12.31069756       0.09200535    -608.53340328       0.11906022       0.02511272       0.30032088
I        9.99220753       6.24263430       0.01285857       0.08828403    -608.56406375       0.56834250      -0.27131591       0.20069019
I        4.19655657      12.36242867       0.19566558       0.08334377    -608.50375052       0.36884131      -0.97801320       0.20717612
I       12.34040546      10.05286026       6.02205944       0.10237951    -608.66014218       1.12473525       0.29998917       0.13363323
I        6.16110134       4.06366348       6.04573536       0.08694603    -608.49211853       0.51009464      -0.43254320       0.76962508
I        2.52187729       6.11563778       6.40898561       0.09443484    -608.62001890      -0.14526555       0.86900773       0.00899224
I        8.15902328       0.23541933       6.56288671       0.09590358    -608.54787849      -0.23473966      -1.00946227      -0.20765687
I       12.43422413      10.16329575      -0.06599490       0.10501417    -608.62084546       0.58998223       0.07006769      -0.03432185
I        6.24958277       3.91468382       0.24405199       0.05813651    -608.11622713      -0.85165005      -0.44624249      -0.66174055
I        2.39172149       6.05853891      12.58374500       0.08426876    -608.48079666       0.05992949       0.53721370      -0.51138392
I        8.35390186       0.22699106      12.41609192       0.07674963    -608.33788441       0.16546553      -0.26317822       0.11710062
I        0.26271737       1.84647381       6.65161276       0.08801692    -608.54210630      -0.46923837       0.10847109      -0.15962429
I        6.25128794       8.41009808       6.53824663       0.08823580    -608.56195174       0.53679596      -0.16054050       0.23250317
I       10.41612625       6.03188038       6.12547970       0.08027344    -608.46981059      -0.15963614       0.44914211      -0.43781990
I        4.58285761      12.55858231       6.17937136       0.08275497    -608.52952278       0.12889636      -0.80741840      -0.08739691
N        5.87014484       5.72948933       3.36090064       0.04672193    -610.41005413      -1.06521251       0.86641567      -1.89149760
N       11.98031044      11.67490196       2.93754816       0.04889217    -610.44357289       1.12180854      -0.38685433       0.79483353
N        0.51880568       6.53589869       9.25454140       0.04609259    -610.51025712       6.23849245      -5.51424354       1.69493865
N        6.22837687       0.20534426       9.40126896       0.04729386    -610.39342486      -2.18791542      -2.17911435      -1.75373361
N        7.46881723       6.21054268       9.28150082       0.04366589    -610.37374498       1.97895481       1.26043556       0.22165208
N       -0.35226297      -0.10309051       9.49032116       0.05082539    -610.30497276       1.55585148      -0.02513488       3.21432061
N       12.74885941       6.07818508       2.84226465       0.04823902    -610.50845702       0.55897475       0.80001576      -2.59578995
N        6.71675730      11.62062263       2.87658548       0.04904883    -610.54802766       2.29369230       0.26026046       1.34245749
C        6.10580397       6.00836897       9.88134193      -0.15754436    -610.05830644      -0.60343682       1.10776525      -1.32310362
C       10.87183762      12.49768925       9.27297401      -0.16485451    -609.99421158       5.73966037       0.49974490      -6.89476191
C        0.63862801       7.55289221       2.72818327      -0.16651842    -610.11106951       0.20437111       0.33915445      -0.90086210
C        6.69396257       0.79228437       2.89692640      -0.16299097    -610.06736286      -0.06453977      -0.65085364      -1.17711666
C        7.25165892       5.42870903       2.87986875      -0.16736937    -610.10106522       1.23378970       0.68893918      -0.12933961
C        0.56165683       0.09819502       2.83702040      -0.16312760    -610.07981681       2.81940560       1.35583960      -0.27756383
C       12.33368874       5.16874266       8.99139690      -0.16969343    -609.94192042       0.38151764      -1.58506549      -0.65900838
C        7.01270056      11.08216000       9.76603413      -0.16180861    -610.08499364      -0.16161692      -3.06978113      -0.79758109
H       11.29717064       5.20324278       8.59779358      -0.00502189    -609.27990190       0.41257492      -0.07892665       0.77965470
H        6.20129395      10.53009129      10.31122684      -0.00276142    -609.31909426       0.48740656       1.06795440      -0.08324571
H       12.93182087       4.73585844       8.13641167      -0.00418427    -609.32268669      -0.40390705       0.71902527       0.59947347
H        7.16905403      10.29851627       8.89923191      -0.00237513    -609.35868693      -0.30299354       2.08796022       0.71387701
H        0.25038812       4.43531322       9.80267334      -0.00510316    -609.28635436      -0.54123960       0.91381337      -0.01362228
H        7.96052122      11.00292206      10.34277725      -0.00336826    -609.31942060      -0.75522735       0.63894961      -0.24921933
H        0.40576014       7.91598606       1.70790386      -0.00345421    -609.36659845      -0.16606049      -0.47132178       0.37895591
H        7.55696487       0.93879420       2.20873499      -0.00410572    -609.31440555      -0.46443526      -0.27361502       0.62092474
H        1.70127749       7.84838820       2.87672853      -0.00378793    -609.35478775      -0.65093922      -0.47755943       0.36382181
H        6.96004868       0.98629177       3.91885376      -0.00424939    -609.31325915      -0.15177082       0.59830268       0.48437308
H       12.25768375       8.01657104       3.43383098      -0.00358237    -609.38949926      -0.00045033       0.28922159       0.26437853
H        5.85275030       1.35282242       2.45502281      -0.00436895    -609.38153237       0.15374621      -0.03733093       0.55736400
H       12.30738831       7.19640207       8.98517513       0.00385232    -609.08341701      -6.87902201       6.67526525      -3.29288664
H        5.49553871       0.55322349      10.09294319      -0.00090429    -609.39613411       0.75350534      -0.15815420      -0.99548943
H        0.76994568       6.89460850      10.16470909       0.00129497    -609.41216691       0.45623847      -0.85095630       1.42237305
H        7.06116629       0.73730701       9.45646667       0.00001352    -609.37234471       1.17326085       1.38733723       0.09867812
H        1.33224666       6.74444818       8.64447880       0.00019941    -609.37704017       0.69578337      -0.48928153       0.01187619
H        5.86222887       0.21579550       8.29766369      -0.00083683    -609.35361358       0.46395045       0.32204725       2.72777820
H       12.68942833       5.84961510       3.78390455       0.00033662    -609.41059284       0.45978131      -0.95648419       2.65916053
H        5.80832863      11.44326687       3.18829679       0.00088821    -609.44557968      -2.28131130      -0.16864901       0.99591332
H        1.18836653       5.50924683       2.30780387       0.00029898    -609.37853237      -0.38781150       0.53125152       0.87275971
H        7.37112522      11.00645638       3.45585775       0.00015813    -609.45878973      -0.37369164       0.80318863      -0.36511061
H       11.86389351       5.76504278       2.47239447       0.00077098    -609.49036694      -0.86039013       0.08482179      -0.65068077
H        6.77383709      11.19300842       1.99302530       0.00125559    -609.47935088       0.20037138      -0.39154899      -2.20329055
H        0.05848847       0.46255249      10.36518955      -0.00006003    -609.50135444      -0.87354560      -0.77829977      -1.87531429
H        8.07914162       7.06560278       9.79147148      -0.00000825    -609.40550463      -1.57213327      -2.20687210      -1.47270455
H        8.11341858       5.29672670       9.33523846      -0.00029855    -609.39719695      -1.21255062       1.41173014      -0.06220596
H        0.23586106      11.18782616       9.80103970       0.00071042    -609.44811196      -0.05445196       1.03910976      -0.89102156
H        0.12443354       0.21543567       8.64018726      -0.00001728    -609.38175289       0.66682976      -0.31624253      -0.12894277
H        7.32724571       6.50126839       8.26876831      -0.00034686    -609.45769321       0.47549987      -0.30619467       0.99320297
H        5.44194794       6.97048092       9.51175022      -0.00248610    -609.36636716       1.38044907      -2.44989053       1.05677398
H       10.65193367       1.21602917       8.84398270      -0.00113223    -609.26604431      -1.14901386      -0.33919062       0.44737964
H        6.28349495       5.99368715      10.98391056      -0.00207742    -609.19445095      -0.74596308      -0.24843226      -0.88755052
H       10.59247398      12.45841312      10.18797684      -0.00479258    -608.84247310      -3.61366183      -0.51230768       5.48179965
H        5.74466991       5.03675985       9.40573597      -0.00274988    -609.32145199      -0.01724858       1.15911745       0.92716440
H       10.77934074      11.82439899       8.40300083      -0.00292788    -609.23658009      -1.67206159      -0.09115005       0.81436871
H        7.62049341       6.26605082       2.19910502      -0.00328401    -609.42758858      -0.32676781      -0.77460885       1.17709653
H        0.54479051       1.23111880       2.58480835      -0.00246884    -609.32270749      -0.66374404      -1.79224289       0.50103607
H        7.35670137       4.53562164       2.27396011      -0.00295745    -609.16917060      -0.86076301      -0.07033866       0.04679414
H        1.55937839      11.92864513       1.97004008      -0.00209867    -609.39782295      -0.76120912       0.46633155       1.24818940
H        7.93839741       5.14174509       3.69242430      -0.00354730    -609.32149158      -0.24002464       1.01625026       0.27596757
H        1.16898906      -0.01300206       3.80591178      -0.00264601    -609.39879447      -0.90030677       0.05728730      -1.18708609
H       12.06224632      10.97232723       3.73744702       0.00099294    -609.33086629       0.12476389      -0.11253724      -1.01747192
H        5.73710203       5.51776552       4.39431953       0.00045907    -609.40851923       0.40462296       0.62989509      -0.46273599
H       11.75437355      11.25276756       2.00382900      -0.00091227    -609.34237710      -0.18532820      -0.13616643       0.44783838
H        5.10823965       5.07812166       2.92463326      -0.00078014    -609.47435657       1.04992168       1.08580520       0.20827401
H        5.67875433       6.76834679       3.04490352      -0.00151566    -609.40837784      -0.27363434      -2.12256817       1.13122156
H       10.81377697      -0.10053957       3.31418014       0.00064210    -609.42372018      -0.93926425       1.23221253      -0.21385375
96
Lattice="12.299111366271973 0.0 0.0 0.397482693195343 12.292691230773926 0.0 0.0 0.0 12.580405235290527" Properties=species:S:1:pos:R:3:initial_charges:R:1:energies:R:1:forces:R:3 original_dataset_index=289 energy=-58452.25114804786 pbc="F F F"
Pb       9.90239239       9.47932339      12.09648895      -0.15153074    -606.29288975       0.22900675      -0.00016269       0.99627411
Pb       2.55432892       3.05228806      12.23111439      -0.12523170    -605.88834224       0.31350652      -0.19527060       0.05575403
Pb       3.53078794       8.62839603      12.57562447      -0.13521051    -606.08020599      -0.31569229       0.52865311      -0.05435178
Pb       8.63564587       3.70398211      12.66423988      -0.10669860    -605.35724595       0.53395636      -0.21716991       0.35067451
Pb       9.84867668       8.65828991       6.31256533      -0.12912141    -605.90700169       0.15779442       0.80436604      -0.50921817
Pb       2.91974449       3.40730762       6.30472040      -0.13854037    -606.04619438      -0.10928145      -0.12607653      -0.31537605
Pb       9.32792759       2.78592587       6.71181631      -0.13614278    -606.04255582      -0.00008709      -0.44605223      -0.49460813
Pb       3.38291717       9.33671188       6.04569721      -0.13678959    -605.89010748      -0.48582881       1.04370693       0.71402211
I        9.84568310       8.63534737       9.28805447       0.08689272    -608.53273398      -0.03290960      -0.32675774      -0.61942794
I        3.66390395       3.33044314       9.23718643       0.09858591    -608.65700211       0.08250240       0.27646741       0.73794107
I        9.59024906       2.43970442       3.70693207       0.09700526    -608.46094504      -0.27498430       0.54746600      -0.70364872
I        4.32746172       9.64267540       3.31105328       0.08148137    -608.44895634      -0.47183206      -0.77513683      -0.67697051
I        2.85173321       3.04974079       3.03943825       0.09472746    -608.53440100      -0.48647219       0.04175655      -0.01885206
I        9.56774044       9.48591614       2.75001478       0.08270297    -608.43775288      -0.42845674      -0.01014792       0.28811937
I        3.64134240       9.14113808       9.55890942       0.07621884    -608.39615970      -0.00137309       0.07703188       0.17034364
I        9.19393730       3.29899335       9.77160740       0.09331465    -608.61727597      -0.05240390       0.27928215       0.43313238
I       -0.66878569       1.90354824      13.07052803       0.07267917    -608.28264905      -3.62397253       2.18036377      -0.86913641
I        6.74196815       8.88691711      12.36646843       0.06384432    -608.28271701      -0.17863990      -0.00424107       0.28450742
I       10.15756702       6.43408203       0.16677144       0.08214413    -608.38623124      -0.29835167      -0.52411453      -0.76230763
I        4.34837675      12.38701248       0.01393974       0.09229612    -608.48454350      -0.30070785       0.06797094      -0.42515350
I       12.76268101       9.91017723       6.46842003       0.08652172    -608.50179459      -0.38767859      -0.15649194       0.02876146
I        6.08574533       2.96807671       5.91604757       0.07102603    -608.26842891       0.74629780       0.83783724       0.33893288
I        3.30220294       6.54272413       5.84286833       0.08334254    -608.45388337      -0.05030804      -1.33645195      -0.21441907
I        8.97791100      -0.44375381       5.98950815       0.07352494    -608.31692911      -0.30207116      -0.02735854       0.73832166
I       12.86877060      10.11762047       0.20530805       0.07265469    -608.37471918       0.29922538      -0.04630575      -0.03800980
I        5.47233009       3.89317799       0.50136554       0.07379003    -608.30702763      -0.12278625      -0.31689629      -0.21735508
I        1.70801640       6.20720768      12.16297150       0.08453080    -608.49184265       0.20486136      -0.49572022       0.22157109
I        8.19020367       0.05988954      12.46116161       0.12532999    -608.82316781       0.59026953       0.86055758       0.74849746
I        0.22224081       2.09279346       6.38435793       0.06853092    -608.24670927      -0.53737224       0.48196405       1.00647078
I        6.44177580       9.19989967       6.88518381       0.14168571    -609.05944527       0.50201640       0.29143635       0.15903469
I       10.13926029       5.68139315       6.03672743       0.09257244    -608.56280177      -0.21574524      -0.13478433      -0.10048288
I        4.17987204      12.55431652       6.34448862       0.08959892    -608.47763332       0.04147646      -0.61767189       0.07415240
N        6.33571196       6.12905931       4.14725494       0.01768215    -610.27765058      -1.07829178      -2.26487252      -1.97574776
N       11.79947376      11.84470940       3.67701721       0.04722234    -610.50021216      -0.02146627      -0.63499242       0.25899625
N        1.38817525       6.47587156       8.72835732       0.00400311    -610.83579816      -2.07389017      -0.90015025      -0.90753025
N        5.22361612       0.22739625       9.44837475       0.04776960    -610.50458189      -0.20800315      -0.54286838      -1.27114238
N        6.99047279       6.60920954       9.87512779       0.01620115    -610.14649563       0.09062489       2.10436536      -2.97686135
N        0.68421566       0.19854082       9.44724560       0.00709751    -610.54677959      -2.48936431       0.70938400       2.99479476
N       12.03385067       4.78627443       2.55815816       0.04396695    -610.41872875       1.04357595       0.47991854       0.46528323
N        6.29390383      12.06470871       2.57825565       0.04745184    -610.27731850       3.62267718      -7.60839561       3.98477920
C        6.30796814       6.09992266      10.80550671      -0.12513071    -610.03145820       0.33676098      -0.54426500      -0.53109622
C       11.90196896      12.19959164       9.51526070      -0.16339931    -609.91714457       0.55903818       0.30310074      -3.18085535
C        0.17970283       6.06754303       3.17573881      -0.17098057    -609.98464718       0.16316105       2.40128441      -0.99864933
C        6.46594572       0.66974217       3.51162291      -0.17646743    -609.76853360      -1.07318581       3.49857265      -0.21370502
C        5.92577219       4.90666389       3.62830043      -0.11055915    -610.01889238      -1.58649648       2.90042102       2.46393436
C        0.27881786       0.45545882       3.67336941      -0.16473569    -610.10541658       0.03118848      -0.47067207      -1.70950830
C       12.46138477       5.62864590       8.92080593      -0.16097344    -609.88461915       1.76996933       2.02509059      -1.03623634
C        7.11358023      12.51618576       9.16480827      -0.16708952    -610.09496996      -1.49093681      -0.69506131      -0.64664913
H       12.18856621       5.62979412       9.94469929      -0.00027900    -609.11161590      -1.34193262       0.54996298       1.12794703
H        7.25991344      12.96887684       8.19041061      -0.00345468    -609.37474580       0.02882097      -0.36029038      -0.51919939
H       11.70799637       5.80876923       8.12345314      -0.00295704    -609.19242703       0.20562845       0.10857701       0.97168254
H        7.55277109      13.18817711       9.84055519      -0.00288999    -609.28545952       0.69895812       0.79088970       1.20932425
H        0.50249553       4.64894342       8.82164764      -0.00339493    -609.09844676       0.60097148      -2.12575738      -0.69902101
H        7.51682186      11.50219917       9.27766323      -0.00344013    -609.39860586      -0.06276188       0.29466295      -0.14586164
H       -0.25366694       6.23061085       4.18298483      -0.00654623    -609.39564369       0.14735260      -0.56773887      -0.42300879
H        7.40823889       0.48098001       4.02626467      -0.00482899    -609.06868316      -0.18575043      -0.63144126      -0.20232749
H        0.01301402       7.01042414       2.55902433      -0.00490230    -609.39180494      -0.14025483      -1.28512164       0.36022168
H        5.77160025       1.30731547       4.11657190      -0.00154991    -609.10981842      -0.10351403      -1.56509744       0.00938042
H       13.55626583       5.95026779       3.25415063      -0.00423008    -609.35941384       0.37795015       0.27785891       0.18086934
H        6.56799221       1.43886840       2.77266669       0.00140152    -609.11698658       1.46374703       1.49184037      -0.10559537
H        7.32767105      11.26170826      14.95757484       0.00070859    -609.01126468      -2.53046390       1.42264569       1.02216042
H        5.00644064       0.06561170      10.44210243       0.00003642    -609.47186036      -0.07918798      -0.30271948       0.63126334
H        2.25198936       6.02060461       8.89223289      -0.00069713    -609.18328276       0.75202476      -0.00036711       0.35566311
H        4.81766701       1.17791533       9.25581646      -0.00065277    -609.48416010       0.12086573      -0.35250967      -0.11003663
H        1.34143186       7.47244787       8.79903603       0.00015211    -609.17711690       0.07799279       0.25203605       0.28408627
H        4.64099312      -0.47093579       8.86440468       0.00034994    -609.49551392       1.03100973       1.01537669       0.83543601
H       12.09626961       4.63366795       1.53312206       0.00015053    -609.44891075       0.13127993       0.58903051       0.26971333
H        5.86308765      10.84700012       6.91277504      -0.00134150    -608.12466910      -0.06109559      -0.15683506      -0.29208288
H       -1.19369054       4.48617983       2.84866548      -0.00166005    -609.32061632      -0.45526398      -0.44490468       0.32074932
H        6.36975288      12.16652775       1.65870118       0.00251600    -609.01476784      -0.52147312       2.19219653      -5.29394599
H       12.77986336       4.24643135       2.99955678       0.00174268    -609.37565342      -0.04215129      -1.74531109      -0.15739421
H        5.62418127      11.24433708       2.77375150       0.00505413    -609.23458497       0.14681199       1.26924988       0.35043687
H       -2.46451354       0.88218361      13.35474014      -0.00026683    -608.10450563      -0.31765347      -0.18507732      -0.85303214
H        7.98159981       6.34847546       9.64423847       0.00385467    -609.18889124      -1.02397849       0.14145271       0.10441301
H       10.29084778       5.95581055      15.56222153       0.00515844    -608.80819278      -0.89842345       0.19799417       0.30614701
H        1.36303902      12.11350155      10.36500740       0.00048414    -609.12472651       1.23942440      -0.29448884      -1.06700193
H        1.00558352      -0.16845527       8.58681965      -0.00099118    -609.05446120       1.08183449      -0.94649031      -0.48871965
H        6.50168133       7.37245369       9.28902531       0.00483611    -609.26633038       1.28604465      -0.91919521       0.96055535
H        6.77497530       5.18105984      11.13848114      -0.00381847    -608.99468910      -0.51361695      -0.00553360       1.13557366
H       11.29540443      -1.24468839       9.43805695      -0.00258486    -609.26445375      -0.15227462       1.89548270       0.65718275
H       26.10578346       0.38763651       1.01644158       0.00738777    -608.58249066      -1.07628349       0.90632825      -0.38016210
H       11.59619904      12.66892529       8.51444149      -0.00138298    -609.20508556      -0.38020446      -0.87769714       0.93715531
H        5.31281996       6.50196838      10.95483112      -0.00447099    -609.08395267      -0.21771275      -0.45597215       0.33485507
H       11.37347412      12.85159588      10.23131180      -0.00418999    -609.17531799       0.19194682      -0.88531060       0.40974666
H        9.60580826       5.82848883       2.69996214       0.01089932    -608.91579193      -0.00271834       0.05290972       0.36409039
H        0.96201456       0.00997028       4.38138390      -0.00339871    -609.38579723       0.53844961       0.05654617       0.11852651
H        4.78173304       4.55801296       3.94667840      -0.00304006    -608.95390590       2.99041314       0.82463807      -1.28965511
H        0.42403895      13.76987839       3.94013429      -0.00457116    -609.28474253      -0.26357012      -0.23126451       0.07157350
H        6.43142033       4.59278965       2.72242665      -0.00295269    -608.72444105       0.21342563      -0.88996236       0.37085983
H        0.68284160       0.46584487       2.64537454      -0.00620115    -609.27488057       0.15099478      -0.15570985       0.29019895
H       10.89521122      12.19233608       3.27308869       0.00081022    -609.45707333       0.84344451      -0.20227970      -0.27546938
H        7.13578749       6.65573645       3.74570251       0.00412358    -609.12378757      -0.54455695      -0.51553790       0.35263558
H       11.53042984      11.70072174       4.66151810      -0.00101338    -609.46314082      -0.20767637      -0.08183517       0.36175691
H       13.41756725      13.23752213       0.78471464       0.01300459    -608.72082877       4.24548624      -2.82750414       1.24117815
H        5.53110123       6.63327789       4.54825115       0.00268307    -609.08159396       0.46012862       0.24647349       0.52421586
H       11.65789890      -1.42536891       3.36532712      -0.00144108    -609.48880915      -0.52180760       1.11289196      -0.21408430
96
Lattice="12.299111366271973 0.0 0.0 0.397482693195343 12.292691230773926 0.0 0.0 0.0 12.580405235290527" Properties=species:S:1:pos:R:3:initial_charges:R:1:energies:R:1:forces:R:3 original_dataset_index=35 energy=-58460.818147661375 pbc="F F F"
Pb       9.72079182       9.10792351      12.44161129      -0.12869982    -605.77176451      -0.70271449       1.25919628       0.21583120
Pb       2.94006443       2.79598689      12.24932957      -0.14352593    -606.06961671      -0.20621609       0.97325465       2.07835380
Pb       3.72186017       8.92614174      12.64778328      -0.13474555    -606.00659496      -0.87488662       0.26674406      -0.25057383
Pb       9.20600510       3.35439849      12.74774647      -0.14350216    -605.97963837      -0.26146689      -0.60523563      -0.13116825
Pb       9.67530918       9.12058735       6.30544853      -0.13459143    -605.96324917      -1.12295326      -0.60636042      -0.21583455
Pb       3.10060072       3.13499117       6.27652264      -0.15047218    -606.33508961      -0.07074677      -0.17432153      -0.35216316
Pb       9.31674862       2.79807758       6.27875185      -0.11899486    -605.71227432       0.51453223       1.07005050      -0.27333588
Pb       3.46778059       9.26747799       6.13204384      -0.13456613    -606.01155914      -0.50294161       0.21599824       1.05496497
I       10.10655117       8.60157967       9.34400463       0.11370902    -608.72019696      -0.10982065       0.14445362       0.29583486
I        3.40398335       2.63592362       9.58284664       0.07807113    -608.43126249       0.40648959       0.00564797      -2.38384331
I        9.50574875       2.91268492       3.00372386       0.08406454    -608.44354848       0.91982526      -0.42336982       1.83978238
I        4.11106634       8.92647076       3.34015489       0.10669585    -608.69194694       0.26858223       0.10568178      -0.80729153
I        2.70368409       3.76911044       2.96177554       0.07925715    -608.39575419       0.38488999      -0.55223476       0.71796951
I        9.60493374       9.77370358       3.22250724       0.09763044    -608.48524560      -0.81600641      -0.74109523      -0.34988170
I        2.69797707       9.59641361       9.78799438       0.07352258    -608.37947692       0.28472007      -0.12271014      -0.53609431
I        9.14270210       3.10697412       9.86125565       0.10214083    -608.58363197      -0.56277155       0.84418196      -1.59379887
I       -0.07725222       2.26319981      12.52042580       0.08168849    -608.50517477       0.03849164      -0.22224636      -0.52846758
I        6.54810572       8.43199635      12.30819416       0.08792283    -608.49998280       0.23823106       0.05550833       0.30125721
I        9.93070602       6.27216721      -0.03805762       0.09292842    -608.59239758       0.67918341      -0.47258106       0.18492705
I        4.16728497      12.36574650       0.18989810       0.08290027    -608.49736450       0.42846782      -1.17372195       0.23327636
I       12.29763603      10.05331421       6.02247858       0.09084335    -608.54309308       1.38224052       0.37006324       0.16915005
I        6.15112543       4.08952761       6.06351614       0.08461413    -608.47575452       0.53495243      -0.33223534       0.69158737
I        2.54764175       6.12519407       6.38116360       0.09339470    -608.59571554      -0.16193044       0.97535629       0.05291817
I        8.10492802       0.26673010       6.56777859       0.09617630    -608.53190993      -0.34924024      -1.12416708      -0.30560826
I       12.40560627      10.18206024      -0.14408489       0.09950319    -608.56312284       0.76805479       0.10214227       0.21207839
I        6.22871208       3.89388561       0.22948198       0.07066457    -608.26123285      -0.65489190      -0.22810515      -0.23039913
I        2.38788605       6.04293633      12.63420486       0.08343078    -608.45831822       0.11868105       0.53662047      -0.70002570
I        8.35520458       0.26934022      12.43936253       0.07776646    -608.34645135       0.18445399      -0.24777125       0.23046320
I        0.28719291       1.76780927       6.67536211       0.07429077    -608.41048562      -0.41910756       0.16749186      -0.17255598
I        6.21009827       8.42816734       6.54327297       0.07977939    -608.47036498       0.63976678      -0.14550865       0.26655415
I       10.43960476       6.02352905       6.13679409       0.07391922    -608.39712335      -0.26936409       0.44564193      -0.48090522
I        4.64068031      12.61544418       6.20761156       0.08758716    -608.57438361       0.05620443      -0.90189543      -0.04227795
N        5.85968590       5.73094845       3.31702280       0.04971303    -610.38368658      -2.52513224       1.78598214      -0.50365866
N       11.94696426      11.69098091       2.89899540       0.05312712    -610.46942030       2.12972762      -1.29261925      -1.71728719
N        0.57341355       6.53177881       9.21495342       0.04970212    -610.30750456      12.95941292      -8.84248632      -2.13896453
N        6.19344425       0.08288361       9.43187237       0.04920398    -610.36627371      -4.04126986       3.23502064      -1.66058253
N        7.57208824       6.19496107       9.21217632       0.04263600    -610.36715336       2.81950395      -0.35451984       3.94607524
N       -0.49827781      -0.16657354       9.55640411       0.04830207    -610.31709193       2.54127312       3.54784915       0.71918638
N       12.76001740       6.18701601       2.80767202       0.04887770    -610.46260806       1.61410184      -0.58179175      -0.04872432
N        6.76326704      11.57035637       2.79083395       0.05032689    -610.48696097      -1.12854634       2.39429046      -1.22666957
C        6.30777168       6.02204227       9.86106396      -0.16599929    -610.02420823      -3.98891359      -0.86650193       2.76464991
C       10.87075329      12.48700714       9.21254635      -0.18115081    -610.00225851      -0.64908171      -0.97350580      -2.89950313
C        0.63320643       7.66062403       2.66686249      -0.16819201    -610.05329741       1.25690049      -0.30608281      -0.76651808
C        6.70159006       0.72588724       2.87993741      -0.17002444    -610.07250442      -0.84809823       1.74355855      -1.36295514
C        7.24779606       5.35182762       2.98984003      -0.16420808    -610.06801513       0.08867149       4.51080269      -0.67195195
C        0.52482414       0.13783333       2.82206106      -0.16263330    -610.01471057       1.69541489      -0.58325795       0.11176631
C       12.37598610       5.18020630       8.92952347      -0.17883648    -609.94728133      -0.43627751      -1.88065041       0.18906640
C        7.09203625      11.06307316       9.76011467      -0.15730299    -609.96640195       0.40780089      -0.00266813       0.74318438
H       11.34339046       5.26068068       8.62552261      -0.00312195    -609.24568696      -0.17725599       0.05864069      -0.86255858
H        6.24260569      10.59748745      10.39672852      -0.00249888    -609.26830581       1.53353820      -0.11568978      -1.53603245
H       13.00679207       4.59464359       8.20558071      -0.00587620    -609.27772089      -0.69073785       0.57812374       0.93315961
H        7.41591406      10.66485405       8.74749851      -0.00315183    -609.22591475      -0.29808299      -0.58686240       1.59424565
H       -0.08656291       4.74780512       9.93258476      -0.00228343    -609.36448421       0.72624720      -0.70941392      -0.39125575
H        7.93074608      11.36544991      10.49202347      -0.00229959    -609.25359717      -0.81769471      -1.30783738      -0.98660757
H        0.08251292       7.80891275       1.73232687      -0.00181515    -609.37652243       0.48699125       0.80402464       0.01014321
H        7.78710365       0.93221039       2.70315647      -0.00340581    -609.32096650      -1.13309130      -0.34453062      -0.52049076
H        1.72662854       7.96242285       2.59904361      -0.00412231    -609.34636402      -1.35436766      -0.48640795       0.00997969
H        6.57990646       0.94527882       3.87749863      -0.00204632    -609.23848300      -0.18520974       0.46741504       2.73551170
H       12.45463467       8.17819118       3.46052098      -0.00385498    -609.28776152      -0.53251496       0.46560021       0.91260529
H        5.92972517       1.48840702       2.43189573      -0.00328073    -609.36901867       1.50315461      -1.74726304      -0.11495526
H       12.20358467       7.02720356       9.17244053       0.00391016    -608.74798251     -11.02749165       9.97236166      -1.31645472
H        5.50130033       0.40982834      10.15588951       0.00070967    -609.50230792       0.49796338      -0.27621609      -0.19190101
H        0.81380665       6.40423870      10.12521172       0.00383784    -609.23231989       1.30869744       0.59699361       4.06147704
H        6.86467981       0.87425685       9.39646339       0.00190472    -609.43400443       0.14889584      -0.48780055      -0.27747426
H        1.55274427       6.76828718       8.72818184      -0.00045040    -609.18268838      -2.36619253       0.03210552       0.19122307
H        5.49638033       0.18347757       8.47782421       0.00019148    -609.40636821       1.94483552      -0.45869577       1.93391484
H       12.74504375       5.71824312       3.72502089       0.00034737    -609.47581162      -0.45224743       0.65510732       0.26191391
H        5.93241405      11.35420132       3.31652808       0.00037910    -609.43137075      -0.94440582      -0.30653354       0.15260239
H        1.28298080       5.64393234       2.33834362       0.00001544    -609.38529476      -1.04445263       0.64707227       0.16076188
H        7.52226877      11.15287876       3.22684479       0.00154816    -609.34064286       2.19925938      -1.87214062       1.14518170
H       11.91726112       6.05418015       2.27447772       0.00016812    -609.42880227      -0.74494360      -1.20716776      -0.08174602
H        6.72427225      11.24849701       1.83026719       0.00019454    -609.45001886      -0.20970906      -0.29355211      -0.56107210
H       -0.09746110       0.69861370      10.31007671      -0.00028899    -609.28762935      -0.81906356      -2.75980678      -1.48968428
H        8.21739674       7.05958700       9.67261219      -0.00086334    -609.31967979      -1.42556078      -2.12204708      -1.38641098
H        8.09598064       5.22043324       9.43354034      -0.00059421    -609.37067103      -0.31555506       1.69575197      -0.38324816
H       -0.06779935      11.20497036       9.91327477       0.00098186    -609.33851258       0.11724961      -1.58178913       1.71558896
H        0.21507698      -0.24820904       8.77963924       0.00198238    -609.38017305      -1.00420357       0.74092628       0.13095631
H        7.61054468       6.26164484       8.24795341       0.00079465    -609.35238507      -0.32654472       0.49765683      -2.87166757
H        5.41529799       6.81780481       9.76826382      -0.00244402    -609.26490324       2.27187255      -1.40369428      -0.50598204
H       10.24756050       1.14642191       8.83710575      -0.00278911    -609.14128339       1.00133353       1.22154462      -1.20699361
H        6.50929213       5.98543549      10.98974609      -0.00114502    -609.19970881      -0.09408554       0.31653013      -1.40941517
H       10.15710258      12.46337223       9.90743065       0.00051027    -608.92665888      -1.53672255       0.03832168       4.93248002
H        5.83695698       4.94376183       9.78586578      -0.00219299    -609.31154443       0.95055687       1.80097006      -0.72258115
H       10.22680569      11.78447056       8.70448494       0.00004938    -609.19709057       1.14805761      -0.92808572      -1.66095285
H        7.65938425       6.23758411       2.29756665      -0.00192831    -609.40987383      -0.71730968      -2.30056709       0.68752331
H        0.30540949       1.22409856       2.69353437      -0.00408476    -609.30828162       0.50132978      -0.76751581       0.23626052
H        7.25341463       4.37470484       2.58598161      -0.00522837    -609.07373087       0.39344987      -0.64145873      -0.11455285
H        1.40724075      11.96384144       1.88817668      -0.00210855    -609.38769923      -0.26674413       1.08552466       1.19392062
H        7.72659445       5.59794474       3.91586113      -0.00205130    -609.25957381       1.03106741      -0.85353175       0.60568032
H        1.17832279      -0.16038229       3.75140166      -0.00334088    -609.38431121      -1.23571747       0.94762219      -1.51459679
H       12.13811874      10.76855469       3.29943752       0.00121395    -609.33912199      -0.55267441       0.13369222       1.02898550
H        5.69752455       5.58765268       4.39103413      -0.00037918    -609.39391938      -0.24374991      -0.53639208      -1.58172942
H       11.67911625      11.37491608       1.95177627       0.00066174    -609.36911550       0.07145136       0.19424366      -0.74538052
H        5.08651114       5.28911686       2.66000962       0.00031338    -609.45261639       1.35211768       0.43316828       1.56320453
H        5.68675709       6.79354620       3.22150493       0.00017335    -609.49217339       0.30873533      -1.39880886      -0.03948589
H       10.73790455      -0.15127894       3.19778848       0.00081453    -609.33423485      -1.63867253       1.11251786       1.60807332
96
Lattice="12.299111366271973 0.0 0.0 0.397482693195343 12.292691230773926 0.0 0.0 0.0 12.580405235290527" Properties=species:S:1:pos:R:3:initial_charges:R:1:energies:R:1:forces:R:3 original_dataset_index=291 energy=-58452.9033709827 pbc="F F F"
Pb       9.89576530       9.46833897      12.10829163      -0.15097076    -606.27487095       0.20542699       0.10188450       0.95390118
Pb       2.56578302       3.06232667      12.23012066      -0.13088802    -605.99277999       0.21051018      -0.13189757       0.05129555
Pb       3.52484918       8.62290668      12.57822418      -0.13515350    -606.08075100      -0.28528253       0.54594364      -0.10908551
Pb       8.64090443       3.70597291      12.66953659      -0.10658403    -605.36287538       0.54555944      -0.40509943       0.30629772
Pb       9.85975647       8.65931892       6.31141329      -0.12937453    -605.91673064       0.16900711       0.78302185      -0.53366359
Pb       2.92031193       3.39700985       6.31157780      -0.14130583    -606.10563486      -0.04484920      -0.00858417      -0.41049002
Pb       9.32882214       2.78729320       6.71167326      -0.13829044    -606.08582461      -0.02494060      -0.45424322      -0.54364394
Pb       3.37636518       9.34071445       6.05605173      -0.14322732    -606.01173964      -0.54520598       0.95699292       0.55874082
I        9.83687592       8.63475323       9.28893852       0.08920667    -608.55008639      -0.02300505      -0.27981246      -0.58884941
I        3.66351080       3.33274722       9.24590492       0.10049792    -608.67324758       0.12181222       0.23487355       0.67636086
I        9.59663010       2.44806504       3.68834686       0.08934468    -608.39406826      -0.38055758       0.54294796      -0.61683054
I        4.33282852       9.63513851       3.30800629       0.08188485    -608.44133835      -0.42519022      -0.74316377      -0.62018674
I        2.86944532       3.03862023       3.03152919       0.09544651    -608.54998959      -0.58448055       0.05700308      -0.04243875
I        9.55953789       9.49152565       2.75273538       0.08201766    -608.41439838      -0.54831714      -0.05986263       0.26340418
I        3.64338946       9.13390255       9.54437351       0.07718445    -608.40157178       0.00435691       0.05278760       0.21600184
I        9.18951797       3.29878759       9.75629616       0.08967413    -608.58687164      -0.07395846       0.31054502       0.54973568
I       -0.68871945       1.90356541      13.06651783       0.12319124    -608.78716739      -0.79955662       0.18559439      -0.26972054
I        6.74016953       8.89988327      12.36214447       0.06524326    -608.29537753      -0.24837196       0.00928241       0.29717196
I       10.14851379       6.44452190       0.16978556       0.08342801    -608.38802941      -0.21806415      -0.61506760      -0.85982513
I        4.35932779      12.39727592       0.00530160       0.08991536    -608.39450977       0.45883985      -0.07998898      -0.49325089
I       12.77160931       9.91436100       6.48926926       0.08522926    -608.48576712      -0.40631528      -0.16586684       0.06154203
I        6.07186317       2.96660042       5.91581726       0.06635100    -608.20371987       0.76154539       0.78700971       0.52126294
I        3.30968451       6.53933764       5.84031773       0.07887800    -608.40630064      -0.10108655      -1.34107837      -0.24487969
I        8.98390675      -0.43913868       5.99412537       0.07229121    -608.31147235      -0.30446770      -0.04691125       0.67867623
I       12.85823727      10.11198425       0.19424346       0.07401612    -608.39114891       0.31153308      -0.05697420       0.00060228
I        5.46381235       3.90092564       0.50274611       0.07364744    -608.30948304      -0.03824707      -0.30984293      -0.28968439
I        1.72199690       6.20980501      12.15021515       0.08056448    -608.45533858       0.21730866      -0.48790103       0.23889445
I        8.20074272       0.05973809      12.44375706       0.12295291    -608.79547662       0.51891287       0.88158618       0.40076567
I        0.22052833       2.09765053       6.39477396       0.06720036    -608.22249092      -0.56151115       0.52725896       1.03604362
I        6.44156218       9.21410370       6.87902117       0.13834786    -609.03733993       1.08419377      -0.77543372       0.23022601
I       10.12633228       5.68425465       6.04316998       0.08854213    -608.52119014      -0.19694503      -0.12748328      -0.10649206
I        4.17217827      12.53781128       6.34991264       0.08998470    -608.47844906      -0.14264669      -0.66021896      -0.01191866
N        6.32266712       6.06981134       4.14505005       0.01727498    -610.20836064      -0.99222537       0.41744324      -1.12120977
N       11.81340885      11.79680634       3.68764591       0.04716932    -610.53319497      -0.03957662       1.12094653       1.11607726
N        1.37875187       6.46191454       8.70058060       0.00221644    -610.77625785      -0.28032426      -0.63186643      -0.70359630
N        5.23220110       0.21260226       9.45592594       0.04659254    -610.51772608       1.54210419       2.74185121       0.96952077
N        6.98834324       6.62714100       9.90454865       0.01534017    -609.99971137       0.02343641       3.26970154      -4.41581558
N        0.65717548       0.22238429       9.44065952       0.00751671    -610.59986244       0.98353225      -0.63247945       0.93897689
N       12.02092743       4.77220726       2.58355021       0.04485678    -610.44482988       0.25544763      -1.43131179      -0.58998723
N        6.33916855      12.01972389       2.57413340       0.03167102    -610.28081520       2.98231919      -3.91102307      -2.97122382
C        6.30446100       6.11284447      10.77266026      -0.12901628    -610.00104773      -1.48095076      -2.25328214       3.62852897
C       11.90650558      12.17967892       9.50318623      -0.16385801    -609.93649676       1.97999023       0.91282476      -1.33331732
C        0.14657182       6.03046131       3.16892743      -0.16968958    -610.01588366       2.68449590      -0.01770435       0.85155839
C        6.45783377       0.66944802       3.52982354      -0.16389063    -609.91739397       1.40583672       2.61111373      -3.12909947
C        5.91323423       4.96221590       3.60410619      -0.12149141    -610.15752102       4.68901197       0.63620185      -2.17371352
C        0.23432727       0.48505840       3.70018625      -0.16306324    -610.10054359       1.08436319      -1.09493146       0.43191278
C       12.48122025       5.63000536       8.93211746      -0.15862279    -609.81372542       0.96063817      -1.14650840       0.62479696
C        7.12320805      12.52350330       9.19864464      -0.16508131    -610.09118522      -0.45561524       0.30114757       0.01715346
H       12.14795589       5.69639826      10.02480412      -0.00032590    -609.14844818      -0.04133550      -0.19998126      -1.14823919
H        7.22472572      12.84444714       8.13933182      -0.00388351    -609.40495305       0.29214540      -0.52803745       0.46097527
H       11.60857391       5.74299002       8.24012184      -0.00279575    -609.12030279       0.80848232       0.51071767       0.50397142
H        7.62288857      13.28485966       9.84396362      -0.00271797    -609.35570614      -0.57510057      -0.41395930      -0.37542847
H        0.51964289       4.52785444       8.73804951      -0.00377471    -609.25600172      -0.50749485       1.57324002       0.45027717
H        7.52687550      11.53623390       9.45980930      -0.00298729    -609.36791999       0.05424875       0.19617110      -0.44679972
H       -0.15599947       5.98479271       4.24573231      -0.00367172    -609.33165886      -0.51075164       0.60559906      -0.89805725
H        7.39236689       0.39086467       3.99443388      -0.00172909    -609.09426070       0.09934955      -0.57080386       0.50012136
H       -0.06167572       6.89945602       2.52572370      -0.00703490    -609.28475402      -0.00331873      -0.12853628       0.52963047
H        5.80849838       1.24222422       4.17966127      -0.00206353    -609.06369240      -0.70811438      -0.80107523       0.04625846
H       13.56030464       5.81568623       3.32607508      -0.00372655    -609.34259944      -0.94308256       1.21181053      -0.65668983
H        6.83036041       1.46403015       2.72841573       0.00200175    -609.21907096      -0.46761789      -0.79711513       1.97580342
H        7.07272005      10.72575474      15.12983131       0.00027519    -608.65035970      -0.54210212       3.20861958       0.20929496
H        4.95845556      -0.01438493      10.44028854       0.00017026    -609.46922209       0.09767069       0.24132250       0.25378268
H        2.28030682       6.00485134       8.84626007      -0.00089094    -609.23714985      -0.53888825       0.35133164       0.07404457
H        4.88136435       1.21017897       9.22775745      -0.00067363    -609.46691158      -0.03253823      -1.27914365       0.43529161
H        1.43770504       7.48072767       8.65045357       0.00117729    -609.19536232      -0.48625178      -0.56805629       0.25446311
H        4.74104357      -0.41200775       8.88380814      -0.00000706    -609.42092826      -0.98829648      -1.38617711      -1.47028934
H       11.98307037       4.58961725       1.55878532       0.00152262    -609.48786297       0.10597541       1.10653758       0.13486221
H        5.55239105      10.59658623       6.64959478      -0.00095991    -608.08885740      -0.17296684       1.01259089      -0.11081930
H       -1.23837733       4.54898214       2.90366244      -0.00263371    -609.33336436       0.32021540      -0.79866110       0.33231613
H        6.53829670      12.37257290       1.50640023      -0.00174794    -609.15506361      -1.22915598      -1.40860428       2.76086112
H       12.82494545       4.13016653       2.84595942      -0.00050552    -609.36712667      -1.09768618      -0.53904274       0.35903062
H        5.64105654      11.26034355       2.70864987       0.00742102    -609.01584110      -0.92777438       1.68214613       0.13567317
H       -2.40234470       0.98838168      13.15289307       0.00024733    -608.14648298       0.00946900      -0.10091310      -0.50124206
H        8.00158501       6.52979708       9.76312923       0.00469544    -609.09566495      -0.09039149      -0.00138131      -0.11973289
H       10.10336113       6.22024441      15.44713497       0.00561154    -608.89897526      -0.71937727      -0.26647170       0.34916427
H        1.50487447      12.26742268      10.34257126       0.00116725    -609.24716822      -0.00819254      -0.05728678      -0.88674856
H        1.24081469      -0.13648131       8.63010120       0.00001579    -609.22331954      -1.26445349       0.20311790       1.26215446
H        6.41618776       7.35610485       9.37526035       0.00605783    -609.30207001       1.50503482      -0.47632824       0.00743236
H        6.85592699       5.35330057      11.37178135      -0.00349883    -609.05709551      -1.08472364       0.52395883       0.03556075
H       11.21135235      -1.14417648       9.55003166      -0.00284614    -609.17824814       0.02171534      -0.91874945       0.27575941
H       26.27369881       0.37442511       1.13315177       0.01107329    -608.80566123       2.74317953      -1.90257554       3.57317830
H       11.62620163      12.56115055       8.53844452      -0.00202994    -609.19504121      -1.15690543       0.16599706      -0.54673841
H        5.22068882       6.39878082      10.90195084      -0.00345845    -609.16996510       1.02280486      -0.60748109      -0.11954680
H       11.46779060      12.77787018      10.27779293      -0.00462733    -609.23731329      -0.50193544       0.24961189       0.56631699
H        9.46295929       5.81665134       2.75830960       0.01264097    -608.89638962       0.30120921       0.21011374       0.50997525
H        0.97599924       0.07997201       4.45362997      -0.00236852    -609.39382779      -0.82463246       0.52572545      -0.40573647
H        5.08112526       4.54013252       3.87825370      -0.00339058    -608.68976069      -5.02195146      -1.70688827       1.56617339
H        0.28761783      13.79000759       4.01325941      -0.00478931    -609.24202462       0.33832219      -0.90527757      -0.81535252
H        6.30839205       4.47401667       2.66546655      -0.00156715    -608.95132901       0.57556262       0.47003480       1.37749831
H        0.78394687       0.33470184       2.77417064      -0.00687776    -609.16689674      -0.29610135       0.68083705      -0.51146755
H       10.91413403      12.04782677       3.25331664       0.00044246    -609.46926610       0.33735874       0.30343360      -0.49543796
H        7.10786057       6.53563261       3.75311089       0.00393231    -609.15243537       1.09711619       0.50908077      -0.30973579
H       11.52436447      11.63961506       4.66777754      -0.00135181    -609.44917677      -0.11741965      -0.13785875       0.19312807
H       13.99821377      12.92770672       0.66951060       0.01167544    -608.79601593      -3.04483782       1.94736017      -3.12579272
H        5.54295969       6.67953587       4.41518974       0.00259111    -609.01768296       0.06496327       0.07372268       1.10959122
H       11.73979950      -1.37622082       3.35240650      -0.00095370    -609.46293540       0.11008443      -1.18210137      -0.73926034
96
Lattice="12.299111366271973 0.0 0.0 0.397482693195343 12.292691230773926 0.0 0.0 0.0 12.580405235290527" Properties=species:S:1:pos:R:3:initial_charges:R:1:energies:R:1:forces:R:3 original_dataset_index=37 energy=-58462.673707214024 pbc="F F F"
Pb       9.73163319       9.10610867      12.43366146      -0.12381670    -605.65442859      -0.71194532       1.33356401       0.36327931
Pb       2.92247963       2.78097630      12.23498917      -0.14289054    -606.05506949      -0.25985424       1.03440767       2.12494515
Pb       3.74280882       8.90732670      12.65105438      -0.13342324    -605.97638458      -1.01621702       0.29552021      -0.23040333
Pb       9.19641590       3.37181973      12.75904179      -0.14480773    -605.99812570      -0.32534866      -0.66361306      -0.18314290
Pb       9.68118858       9.11199379       6.30506659      -0.13218783    -605.90513161      -1.17778811      -0.60857866      -0.31402531
Pb       3.09507942       3.13936019       6.27381325      -0.15157101    -606.35835495      -0.12135998      -0.16421662      -0.37473668
Pb       9.31723690       2.78402543       6.27694511      -0.11711031    -605.65877320       0.55879277       1.08012802      -0.28541267
Pb       3.47162461       9.27278900       6.12583256      -0.13479355    -606.00498023      -0.60677275       0.19828489       1.09912009
I       10.12999725       8.59906769       9.33859444       0.13535966    -608.87939628       0.38248244       0.04952858       0.18369344
I        3.40405536       2.64416695       9.57603550       0.07712436    -608.42367501       0.43108322       0.00758040      -2.38673341
I        9.48636055       2.91716027       3.00857687       0.08287400    -608.42774947       0.97374872      -0.50147116       1.90560777
I        4.12669182       8.92650795       3.34837246       0.10609655    -608.68509638       0.21071008       0.15201833      -0.90340918
I        2.69180608       3.77481604       2.95524096       0.07500239    -608.34913549       0.36435664      -0.60508074       0.77660505
I        9.62269974       9.76935959       3.22611070       0.10126201    -608.51967092      -0.90270617      -0.82665689      -0.32475124
I        2.69018698       9.60461235       9.80837917       0.07403347    -608.37906824       0.36169081      -0.08919369      -0.54149673
I        9.16341782       3.09620929       9.87683487       0.09292216    -608.49205912      -0.47712886       0.79946171      -1.66111200
I       -0.08952890       2.26594710      12.52916050       0.07877090    -608.47112205       0.07509499      -0.21096318      -0.43343234
I        6.55529261       8.43787956      12.30799389       0.09171040    -608.54081287       0.29052678       0.05769514       0.28381580
I        9.91036415       6.28172827      -0.05560500       0.09286391    -608.58837039       0.65887592      -0.53506831       0.21804094
I        4.15776062      12.36422348       0.18838976       0.08434871    -608.51528545       0.42671119      -1.21350430       0.23665465
I       12.28545856      10.05427456       6.02293730       0.09084816    -608.54028972       1.39227845       0.40038201       0.17271898
I        6.14879894       4.09791279       6.07148886       0.09408675    -608.56338331       0.50268478      -0.23151368       0.62694393
I        2.55657291       6.13092136       6.37122250       0.08210291    -608.47986236      -0.10778137       0.95688767      -0.11403548
I        8.08499813       0.27524686       6.56893301       0.09459323    -608.51429296      -0.35824399      -1.19920918      -0.20357384
I       12.39706326      10.18900204      -0.17151870       0.09703276    -608.52575158       0.76617668       0.07303247       0.25494696
I        6.21951532       3.88582110       0.22347400       0.06874413    -608.25855891      -0.60117110      -0.19369849      -0.15027219
I        2.38673306       6.03852987      12.65049839       0.08462306    -608.46840137       0.14607471       0.55514096      -0.74439002
I        8.35597706       0.28378525      12.44833374       0.07852799    -608.34884786       0.09478979      -0.23986684       0.35464255
I        0.29480749       1.74006581       6.68350315       0.07322358    -608.39755442      -0.43960271       0.20082725      -0.19682219
I        6.19702816       8.43424511       6.54573727       0.08092251    -608.48301506       0.76311095      -0.18677996       0.35102706
I       10.44741535       6.02160120       6.13985062       0.07567786    -608.40920033      -0.36740819       0.48535933      -0.54456938
I        4.66141939      12.63364220       6.21739244       0.07760564    -608.46161659      -0.08570034      -0.91033855      -0.19851709
N        5.84281921       5.75358295       3.27511740       0.04673121    -610.52314677       0.58389671      -0.21909928       3.72587172
N       11.94381046      11.68222427       2.87261033       0.05392334    -610.45915067      -1.60352107       1.90281764      -0.53940147
N        0.62758762       6.51740694       9.19870853       0.03310502    -610.39214882      -0.75507874       1.25885096       4.32603340
N        6.13451052       0.08821889       9.43277359       0.05185693    -610.50572715       2.93098834       1.01558434       2.30022988
N        7.62935829       6.18906975       9.18792439       0.04945821    -610.47962548      -4.39210440      -5.28424352      -4.48444703
N       -0.51374692      -0.18028985       9.58498859       0.04610427    -610.35024375       0.12141675       0.38451721       1.28579904
N       12.76085854       6.21996641       2.79726171       0.04860111    -610.44945901      -1.68113206      -0.52435852       0.73617786
N        6.79264927      11.58465099       2.75213909       0.04701687    -610.40611916      -1.51587823      -3.33795876       0.31267084
C        6.34228754       6.01582289       9.90209293      -0.17150784    -610.05211499       0.86932049      -3.84178015      -0.26185958
C       10.82244301      12.46387863       9.18792248      -0.16547661    -610.08706529      -3.58614132      -0.09222691       1.22850655
C        0.62273240       7.69536972       2.63579154      -0.16894881    -610.07769504      -1.14771742       0.38179400       0.95719199
C        6.68021584       0.71268588       2.91314507      -0.16282922    -610.03436816      -0.62074708       2.05707878       0.12707934
C        7.25378418       5.37733269       3.05961609      -0.16176590    -609.99357700       0.30825511       1.04231950      -1.80574551
C        0.53165573       0.14244367       2.81064153      -0.16732359    -610.08080846      -1.05290230      -0.76377105       0.67471140
C       12.36485195       5.15052986       8.91729164      -0.15899582    -610.02133083      -0.25589617       1.23043445       1.52001991
C        7.13147783      11.05692768       9.75484276      -0.16437982    -610.11632794      -0.86403997       1.51083015       2.07846242
H       11.38830185       5.26090860       8.46765709      -0.00313035    -609.24437256      -0.26305812       0.05221809      -0.16225308
H        6.33863401      10.51272202      10.26032352      -0.00266255    -609.37857959       0.13558735      -0.53089735      -0.11114718
H       12.95756721       4.53327560       8.30935860      -0.00276186    -609.24198663       1.15029300      -0.59782361      -0.95585050
H        7.45676661      10.64673805       8.87300873      -0.00388592    -609.24936656       0.82330461      -1.31139543      -2.02812444
H       -0.04620121       4.69122839       9.88816357      -0.00152997    -609.32156926      -0.12956729      -0.48978580       0.34728933
H        7.93549490      11.29469681      10.46961021      -0.00402049    -609.34367279      -0.21849190      -0.47217325      -0.26218056
H        0.08206492       8.02832317       1.72965789      -0.00335351    -609.39214746       0.20369457      -0.28501402       0.40347787
H        7.75259018       0.85917515       2.74177003      -0.00243777    -609.23008233      -0.31607129       0.10125972      -0.28598631
H        1.66702187       7.90726662       2.50515437      -0.00361914    -609.32652398       0.51809740       0.22754573       0.13188188
H        6.51362753       0.99844813       3.99657202      -0.00284299    -609.35187577      -0.13896930      -0.33617295      -1.10390202
H       12.49633217       8.19780922       3.53724337      -0.00338842    -609.37857570       0.35893767      -0.15887743      -0.57546960
H        6.03077126       1.42029023       2.20568943      -0.00379813    -609.37058693       1.26657202      -1.65619713       1.32613774
H       11.81687641       7.34898090       9.35166645       0.00000450    -608.87132336       2.97942693      -1.33692467      -0.82595139
H        5.51343489       0.35606837      10.17536163       0.00071267    -609.46989493      -0.39622966       0.51246305       1.26787184
H        1.04722357       6.53524685      10.27856922      -0.00054210    -609.33318943      -1.44203847      -0.22967237      -2.50690917
H        6.91180611       0.83677888       9.37773132       0.00051617    -609.43900320      -1.48287353      -0.89523173      -0.39198533
H        1.53831089       6.81224155       8.77390862       0.00179305    -609.21906029      -1.23303638       0.08446775      -0.90242645
H        5.52907228       0.04553230       8.68051243       0.00101927    -609.36533117      -1.36637646       0.18218084      -3.11096611
H       12.75029755       5.76426554       3.78413367      -0.00000966    -609.49385743      -0.35329177       1.31689839      -1.37985043
H        5.92297792      11.27908516       3.32875156      -0.00024719    -609.51709636       1.22742074       0.57359952      -1.12399719
H        1.27931929       5.77526283       2.37554336       0.00056689    -609.36414565       0.22374499      -0.61169154      -0.64648735
H        7.57823133      10.89584255       3.11875987      -0.00004312    -609.44039697      -0.76141393       1.40686579      -0.42940340
H       11.87705421       5.97848988       2.25172997      -0.00071967    -609.48718138       1.13843944      -0.33406310       0.87216594
H        6.63655472      11.19134521       1.75301707       0.00041783    -609.50806650       0.16279255       1.22275553       1.34107824
H       -0.20656198       0.68025142      10.25735092      -0.00114878    -609.34251335      -0.01620711      -2.46332478      -0.92272792
H        8.09734726       6.86682892       9.55333805       0.00161207    -609.16663042       3.90485784       6.01102856       2.37960165
H        8.15199471       5.36207104       9.37262821       0.00115700    -609.36492978       1.16160521      -1.70937428       0.71672935
H       -0.15177862      11.12471676       9.98943806      -0.00003119    -609.35318274       0.10088246       1.39748932       0.88987650
H        0.18798102      -0.39232084       8.85345078       0.00084245    -609.37762161      -0.29097001       1.05224354      -0.40564152
H        7.65174580       6.13284254       8.10260105       0.00049121    -609.42669576      -0.57988196       0.85699887       1.58212581
H        5.64873934       6.71555567       9.68760681      -0.00387017    -609.14630699      -2.16775310       2.54473389      -1.15413976
H       10.26156998       1.13937461       8.71904945      -0.00278340    -609.17598179       0.96520393      -0.09830698      -0.25351314
H        6.53850317       6.06093693      10.95484734      -0.00289830    -609.32323375       0.33735408      -0.14774335       0.49979360
H        9.97824860      12.58185577      10.12666607      -0.00073904    -609.24555814       2.79964155      -0.61561314      -1.45084508
H        5.92289448       4.98201132       9.68136120      -0.00377923    -609.44679512       0.52626191       1.14591584       0.11837909
H       10.28357315      11.72881031       8.59202099      -0.00198366    -609.23816375       0.74207451      -0.35965645      -0.27864273
H        7.67774296       6.00483847       2.18582797      -0.00318902    -609.38031527      -0.49501958      -0.81659525       1.36978967
H        0.28860670       1.15209460       2.79906797      -0.00323251    -609.30723887      -0.36915900       2.02477472      -0.18972597
H        7.27268934       4.32036114       2.72441912      -0.00430884    -609.23201605      -0.13218586       0.70306164       0.54157586
H        1.44512641      12.17293262       1.93467951      -0.00334852    -609.33446209       0.77749679      -0.47590308      -1.24071597
H        7.78639793       5.53708172       4.00111628      -0.00452180    -609.30969631       0.09759160      -0.02212377      -0.26201307
H        1.09956765      -0.03331928       3.68507791      -0.00344315    -609.34637861       0.62835716      -0.47467912       1.04933737
H       12.03789997      10.74965382       3.27255321       0.00046152    -609.35584249      -0.20265197       0.03651045       0.71011929
H        5.60650682       5.51471043       4.33529282       0.00063149    -609.42750255       0.32657907      -0.45510851      -1.60235608
H       11.58321190      11.48919487       1.91093194       0.00008407    -609.43067309       0.44241235       0.04027763      -0.07204743
H        5.13154507       5.37519884       2.72523093       0.00108344    -609.42843695      -1.39360812      -1.76977668      -1.65073037
H        5.55895281       6.69621325       3.33572412       0.00196916    -609.41486071       0.43634304       2.46834652      -0.40456811
H       10.68065834      -0.03744483       3.27137756      -0.00041750    -609.44565122       2.13500334      -1.32836462      -0.19917945
96
Lattice="12.299111366271973 0.0 0.0 0.397482693195343 12.292691230773926 0.0 0.0 0.0 12.580405235290527" Properties=species:S:1:pos:R:3:initial_charges:R:1:energies:R:1:forces:R:3 original_dataset_index=295 energy=-58452.815681109336 pbc="F F F"
Pb       9.88323402       9.44752502      12.13314152      -0.14763840    -606.19116403       0.09737268       0.37473851       0.92910682
Pb       2.58829927       3.08150816      12.22833252      -0.12203921    -605.80026154       0.01458188       0.01094643       0.14238153
Pb       3.51274848       8.61352062      12.58299065      -0.13452706    -606.06466875      -0.25201243       0.51786570      -0.19234183
Pb       8.65206242       3.70925808      12.68014240      -0.10505898    -605.35387814       0.28305058      -0.21682655       0.02385960
Pb       9.88160419       8.66295528       6.30810976      -0.12745264    -605.86758601      -0.01808722       0.80568180      -0.52077198
Pb       2.92124796       3.37712646       6.32403088      -0.13691695    -606.02150912      -0.08147707       0.08326753      -0.50299004
Pb       9.33057499       2.78894711       6.71036196      -0.13508949    -606.02700452      -0.05258067      -0.47351853      -0.40763836
Pb       3.36210871       9.35006142       6.07741833      -0.13850617    -605.96713524      -1.07572349       0.16257226       0.46021316
I        9.81973362       8.63253689       9.28850937       0.09272155    -608.56601226       0.05250427      -0.22943018      -0.47560136
I        3.66327596       3.33803582       9.26504993       0.10385053    -608.70703852       0.15852280       0.17674637       0.65178199
I        9.60750961       2.46618819       3.65037394       0.09688920    -608.47038298      -0.53090802       0.53707826      -0.58034380
I        4.34190512       9.61819458       3.29974818       0.08049969    -608.37515765      -0.41117384      -0.47402378      -0.69635046
I        2.90170026       3.01694417       3.01613021       0.08488445    -608.44969366      -0.54018692      -0.21190877      -0.00918242
I        9.54205990       9.50194645       2.75901031       0.07745294    -608.36605925      -0.15980700      -0.10751882       0.27521539
I        3.64755225       9.11994743       9.51698399       0.07211781    -608.35639404      -0.08724243       0.03210922       0.26047419
I        9.18055725       3.29941106       9.72854233       0.08645654    -608.56492216      -0.05021795       0.28133330       0.63748018
I       -0.73030114       1.90502656      13.05774021       0.13626185    -608.91359109       0.08261087       0.14653375      -0.34754724
I        6.73567772       8.92482662      12.35490322       0.06228526    -608.24630113      -0.32726623       0.04990602       0.24644583
I       10.13045311       6.46262598       0.17262414       0.10004000    -608.58657671      -0.02580053      -0.90603096      -0.45114277
I        4.38304329      12.41698647      -0.01415363       0.03673138    -607.74342977       2.49892735       0.10236320      -1.80334934
I       12.78719807       9.92186832       6.52968454       0.08424714    -608.46921276      -0.52854867      -0.13742108       0.10728527
I        6.04766464       2.96619844       5.91690254       0.06674458    -608.22713396       0.77968699       0.54367724       0.40543708
I        3.32394290       6.52817583       5.83429480       0.07702670    -608.38062292      -0.03781957      -1.31981902      -0.28247030
I        8.99467659      -0.43018314       6.00555515       0.07586870    -608.35937891      -0.17179987       0.04307345       0.67614956
I       12.83896160      10.10085201       0.17318372       0.07845794    -608.44508756       0.38475580       0.04605893       0.11687163
I        5.44750214       3.91489649       0.50451630       0.07870777    -608.35970241       0.22957678      -0.26155556      -0.18128859
I        1.74980938       6.21323824      12.12640095       0.08220430    -608.48615257       0.10806704      -0.53211752       0.26283442
I        8.22265816       0.06225880      12.41152477       0.11328012    -608.73625925       0.39841739       0.75831233       0.15747225
I        0.21537711       2.10895228       6.41870832       0.06517167    -608.20295141      -0.58339744       0.59209894       1.02602920
I        6.44385624       9.24003983       6.86734629       0.10084811    -608.72842966       0.44617487       0.28676507      -0.23087281
I       10.10053921       5.68945837       6.05540133       0.09103225    -608.55040942      -0.14993555      -0.16258641      -0.03581252
I        4.15680122      12.50372791       6.36025381       0.09860314    -608.56667281      -0.02966166      -0.51710153      -0.13713745
N        6.30719709       6.03301477       4.11307383       0.01192180    -610.25610251      -0.38615184       1.05679985      -0.73923015
N       11.84974861      11.70649719       3.72680569       0.04964739    -610.51777283       0.17132188       0.79068766      -2.51280366
N        1.34950519       6.41384172       8.62596226       0.00219309    -610.80315689       0.42153406       0.39442649      -0.70231196
N        5.27496624       0.19890907       9.47971153       0.04803383    -610.49813078      -0.36938986       2.06625989      -1.34577411
N        6.99255610       6.71110868       9.87605190       0.01452942    -610.27174041      -1.20157846       0.91223997      -0.09933830
N        0.63141626       0.26160145       9.45416069       0.00388534    -610.64068346       2.65518151      -0.11274504      -0.37490860
N       11.99393368       4.69086313       2.61433911       0.04708554    -610.48803206      -0.99384315       0.85869075      -2.55095506
N        6.48789454      11.82557106       2.53992724       0.04836725    -610.25000794      -6.39168601      17.32973054      -3.84464026
C        6.28370714       6.08567142      10.80753708      -0.11568524    -610.07499948      -0.32531276       2.28587099      -1.30619022
C       11.95714378      12.16921616       9.46065712      -0.16051351    -609.81113552      -1.52647561      -1.34145153       0.68806351
C        0.15685342       5.94274664       3.18709564      -0.16540292    -610.04720445       0.87917705       1.17050288       0.84651510
C        6.49540091       0.70127064       3.50138855      -0.16858901    -609.92407340       0.21576005      -3.50623158       1.95550303
C        5.90190077       4.99047947       3.52990270      -0.11991066    -610.12357845      -1.83200727      -3.69379639       1.05907037
C        0.18630198       0.48754478       3.74221969      -0.16244356    -610.08964128       0.11398483       0.17538044       0.70953909
C       12.54621601       5.61645460       8.97944355      -0.16568291    -609.90743771      -2.20256911       0.96980003      -0.98736326
C        7.12684536      12.53895187       9.26234245      -0.16988939    -610.10934223      -0.35338246      -2.13065874      -0.92590444
H       12.10760784       5.72466612       9.95372200       0.00005376    -609.03803442       0.28622480      -0.12526727       1.51569584
H        7.28524590      12.46493721       8.18238068      -0.00358991    -609.40516647       0.15308410       0.52583813      -0.01906010
H       11.58216381       5.85490751       8.43595791      -0.00165487    -609.19054550       1.04697119       0.07475431      -0.37132361
H        7.56087208      13.37040997       9.72736168      -0.00350845    -609.25468745       0.60794537       1.32427455       0.50668099
H        0.43738350       4.59541941       8.74738979      -0.00326023    -609.19260641       0.23967331      -1.12898353       0.02359022
H        7.56925106      11.61906147       9.65760326      -0.00196754    -609.40459898      -0.04449492       0.04701999       0.18337732
H       -0.23356883       5.87101507       4.21912909      -0.00213395    -609.32839406       0.33620929       0.82602117      -0.24095342
H        7.20998383       0.11553772       4.09851170      -0.00000644    -609.20727509       0.19304101       0.38701744       0.45838145
H       -0.26942039       6.82997370       2.59139991      -0.00427347    -609.40679898       0.51048340      -1.24485211       0.90878299
H        5.66970587       0.87701470       4.24662113      -0.00257798    -609.20559749       0.63874034       0.43775161      -1.33481303
H       13.57583332       5.97825813       3.22631693      -0.00390704    -609.35964851      -0.84445865       0.02063473      -0.23446807
H        7.15895510       1.46232593       3.11021996      -0.00299630    -609.11437081      -0.78344883       0.43605429      -0.66444711
H        6.54589558      11.01908398      15.36171341       0.00080495    -608.61324446       2.85927090     -12.99082355       3.27794789
H        4.95944738      -0.04864432      10.42076778       0.00084833    -609.43692101      -0.09742298      -0.22772269       0.83328789
H        2.24850845       6.02181435       8.81496716       0.00002172    -609.23281298       0.47242015       0.02756597       0.21726953
H        4.84538507       1.17928004       9.26231289       0.00057488    -609.48315386       0.46417617      -1.33378652       0.44089654
H        1.36885202       7.41777420       8.47402573       0.00138597    -609.21320032      -0.42791461      -0.29513409       0.31551345
H        4.86335993      -0.41229030       8.77742767      -0.00027231    -609.47038329      -0.40257488      -0.45669072      -0.07441570
H       11.78816319       4.88714314       1.58502698       0.00028765    -609.46250307       0.07490357      -0.59477484       0.99419631
H        5.08317757      10.46789265       6.17019844      -0.00126253    -608.08734081       1.14654285       0.57267576       0.60259912
H       -1.14888501       4.36339140       3.06723428      -0.00047072    -609.38952114      -1.37951660       0.03890309       0.25419142
H        6.57349062      12.31121349       1.60462689       0.00092065    -609.13073471       0.41342754      -2.20704962       0.29774882
H       12.52356529       3.84854770       2.69475126       0.00090134    -609.40479893       1.90219212      -0.68869701       0.02830827
H        5.29363394      11.86278725       2.62123728       0.00095814    -609.14459991       3.06863709      -0.05485735      -0.49382913
H       -2.31334257       1.10561955      12.58283997      -0.00069414    -608.18244904      -0.23805459      -0.38849099       0.15153865
H        8.03942299       6.87499571       9.97933483       0.00203568    -609.15416719      -1.21008569      -0.26652662       0.01865797
H        9.42606831       6.62939978      15.37219524       0.01264752    -608.90793195      -0.37888228      -0.94193764       0.47729733
H        1.67108762      12.52673149      10.28185654       0.00311517    -609.22540798      -1.76991313      -0.17029933      -0.13934448
H        1.28560853      -0.12584946       8.76110172       0.00206252    -609.26395908      -1.04827351      -0.07623295      -0.35250041
H        6.49624777       7.48818541       9.22542667       0.00135742    -609.12396400       0.99350236      -2.30572150       1.32573229
H        6.69363594       5.79744911      11.77432251      -0.00304733    -608.86498232       0.41364107      -0.36316687      -0.55818018
H       11.18264675      -1.19683731       9.80298519      -0.00085267    -609.12509823       1.27760187       0.91778313      -0.95202664
H       26.61673546       0.24658379       1.35406470       0.01166053    -608.83228168      -1.96505905       1.00242867       3.74312449
H       11.34460163      12.40089130       8.51308155      -0.00440978    -609.25127788       1.19106484      -0.09397722       1.13550098
H        5.15340996       6.05564213      10.74533272      -0.00334414    -609.08838247       1.24784543       0.04013569      -0.22027445
H       11.55035114      12.68789196      10.31917381      -0.00235259    -609.05061110      -0.69038780       0.80537343       0.07910729
H        9.31332588       5.89229536       3.04826236       0.01204185    -608.95014923       0.06170498       0.78623720      -0.02883498
H        0.82535499       0.31811246       4.62859917      -0.00238428    -609.33500371      -0.29901465      -0.08490284      -0.49483277
H        4.92685461       4.52126694       3.89311242      -0.00227895    -609.02220230       0.81204610       0.98471034      -1.03206656
H        0.07435973      13.77378368       3.86544847      -0.00180445    -609.28331140       0.69120402      -1.11708147      -0.43984069
H        6.48979807       4.32753277       2.86904311      -0.00189733    -609.00988358       0.14162903       0.85258725       0.58725142
H        0.82291460       0.40315598       2.86495876      -0.00757831    -609.31973762      -0.23118348       0.09261658      -0.33396606
H       11.05069542      11.90860271       3.06916094      -0.00004178    -609.49966465       0.38251493       0.25779669       0.87466012
H        7.16199541       6.38218498       3.81874394       0.00325059    -609.15259859       2.43223948       1.26840522      -0.30849667
H       11.47733784      11.47632980       4.64028645      -0.00143576    -609.37726917      -0.39148113      -0.14867378       0.69983196
H       14.87308979      12.34367561       0.73915368       0.01349039    -608.98499803      -0.86556432      -0.98916680      -2.03704832
H        5.67446470       6.67402983       4.56968164       0.00317048    -609.11200646      -0.62275003       0.12466812       0.78686765
H       11.83418560      -1.40045512       3.25746036      -0.00028737    -609.48633294       0.33637817      -0.78321153       0.19921718
96
Lattice="12.299111366271973 0.0 0.0 0.397482693195343 12.292691230773926 0.0 0.0 0.0 12.580405235290527" Properties=species:S:1:pos:R:3:initial_charges:R:1:energies:R:1:forces:R:3 original_dataset_index=40 energy=-58461.53016982272 pbc="F F F"
Pb       9.74631310       9.10521317      12.42267323      -0.12085573    -605.57127127      -0.82442204       1.30825863       0.50560974
Pb       2.89673185       2.76054049      12.21698856      -0.14571844    -606.10282258      -0.24681947       1.10976179       2.08459861
Pb       3.77178979       8.88051414      12.65545464      -0.13596773    -606.01731989      -1.12122423       0.28943394      -0.29053161
Pb       9.18218994       3.39616823      12.77509594      -0.14882728    -606.06855319      -0.33057839      -0.63974246      -0.25821213
Pb       9.68814945       9.09877586       6.30401945      -0.13045862    -605.85160617      -1.36591279      -0.64252252      -0.45556576
Pb       3.08690119       3.14546061       6.26936531      -0.15305743    -606.37970563      -0.10255815      -0.10885184      -0.33239567
Pb       9.31865120       2.76511097       6.27403879      -0.11848290    -605.68086964       0.51824513       1.12768534      -0.26563561
Pb       3.47633553       9.28079319       6.11827230      -0.13440202    -605.98213397      -0.74207620       0.23262670       1.16510043
I       10.16450214       8.59553337       9.33133316       0.15512675    -608.98526675       0.23521017       0.14042712       0.19986465
I        3.40499592       2.65607929       9.56120396       0.07246350    -608.36964540       0.43294584       0.02607595      -2.32495108
I        9.46025562       2.92255712       3.01953983       0.08107469    -608.40510540       0.92103618      -0.51322212       1.82991954
I        4.14976406       8.92686558       3.35823512       0.10692450    -608.68815558       0.21270625       0.14944450      -1.02042876
I        2.67535710       3.78180408       2.94740295       0.07492248    -608.33795000       0.41162447      -0.56833798       0.75556808
I        9.64652157       9.76134205       3.23060656       0.09591343    -608.47589091      -0.89320507      -0.90494724      -0.33783220
I        2.67968869       9.61623287       9.83677483       0.06958666    -608.32375209       0.42205477      -0.18599547      -0.54486593
I        9.19238758       3.08216119       9.89591789       0.08978443    -608.45827438      -0.35055420       0.68908610      -1.58454615
I       -0.10716988       2.26953626      12.54088211       0.07783702    -608.45336599       0.06909052      -0.21293136      -0.42331673
I        6.56638861       8.44656754      12.30831051       0.08760925    -608.48585909       0.35196686       0.07391487       0.31489286
I        9.88238049       6.29450464      -0.08047007       0.08965816    -608.54745110       0.65985034      -0.59255167       0.19152948
I        4.14488363      12.35941315       0.18671207       0.08678988    -608.54072140       0.49698095      -1.23008913       0.25093725
I       12.27081013      10.05653095       6.02388620       0.09493700    -608.56726090       1.52451015       0.48108967       0.15549023
I        6.14653063       4.10952759       6.08440590       0.08664592    -608.48422662       0.45667681      -0.31065030       0.59796648
I        2.56935787       6.14130354       6.35658407       0.08409432    -608.50725952      -0.11259493       1.02271407      -0.14392884
I        8.05548763       0.28504935       6.57009983       0.09072763    -608.47857751      -0.29869301      -1.19118278      -0.19296152
I       12.38631630      10.19920254      -0.21060494       0.09970661    -608.52834506       0.85949487       0.06372587       0.43619740
I        6.20489788       3.87377691       0.21454273       0.06799463    -608.26430871      -0.60130336      -0.14633063       0.00801725
I        2.38539791       6.03329754      12.67242050       0.07986359    -608.40906898       0.19742323       0.53548065      -0.66392839
I        8.35734653       0.30409840      12.46205711       0.08004963    -608.35089458       0.17182805      -0.30043143       0.33246954
I        0.30485854       1.70027447       6.69491100       0.07737841    -608.42661300      -0.45137822       0.15708618      -0.15270481
I        6.17983246       8.44269466       6.55005407       0.08005169    -608.46313210       0.89673488      -0.17539510       0.40130986
I       10.45797634       6.01986694       6.14317226       0.07538937    -608.40731256      -0.35661548       0.54277266      -0.66769908
I        4.69133425      12.65801144       6.23118639       0.08257496    -608.50741057      -0.08409810      -1.02683292      -0.07733889
N        5.81112480       5.79634571       3.25501227       0.04525251    -610.40593880      -1.35581866      -0.59077731      -0.33566112
N       11.92396641      11.69225597       2.82125330       0.05091891    -610.45034473       2.11529807       0.77017718      -0.10330256
N        0.67965406       6.51185226       9.24615574       0.02643510    -610.44370475      -4.11631486       1.17904591      -6.69265772
N        6.06703711       0.09807305       9.46759033       0.04589883    -610.38939328       0.21357789      -1.95959134      -1.58700122
N        7.68826818       6.14310694       9.12330532       0.04269163    -610.39200115       3.29971684       1.21596978       5.56567572
N       -0.55218494      -0.22327299       9.62419605       0.04694463    -610.41520462       0.06670436       2.65128653       1.28198471
N       12.74112225       6.26731491       2.77967787       0.04823924    -610.45837518       0.79191114       0.03210902      -0.12097156
N        6.81670856      11.55626583       2.70428324       0.05002441    -610.50620177      -1.02476059      -1.14979083       0.64482364
C        6.39763784       5.98014975       9.94474792      -0.15492991    -610.02059426      -0.31548194       1.40918184      -3.36571624
C       10.69477558      12.42913532       9.16971016      -0.16139385    -610.09372851       4.96648947      -0.88133624      -4.36882744
C        0.58956826       7.75118685       2.61111331      -0.16877359    -610.07936179       1.67219872      -0.38225476      -0.33434144
C        6.64533997       0.71803457       2.97142553      -0.16589335    -610.00516171       2.56536529      -1.60432425      -3.46787428
C        7.26053953       5.42293882       3.14475107      -0.16815265    -610.04257397      -0.57809861      -0.92913161      -1.87076339
C        0.52561945       0.15383281       2.80114293      -0.16312900    -610.02435211       1.69410967       2.18580675       1.40235515
C       12.35092926       5.12345266       8.92100620      -0.14890561    -609.89110417       2.28010755      -0.10345316       0.47838855
C        7.17293596      11.06283188       9.75282001      -0.15812169    -610.10394910      -0.09301617      -2.76880186      -0.76866876
H       11.47238922       5.25853825       8.28152943      -0.00309207    -609.14592370      -0.01345331      -0.00643975       0.68179803
H        6.43414640      10.24868774      10.07285118      -0.00169499    -609.32600776       0.51133383       1.50731372       0.09483536
H       13.04913712       4.42800426       8.33275986      -0.00095940    -609.24930729      -0.39490286       1.38933944       0.47592297
H        7.59077024      10.49599266       8.83253288      -0.00138387    -609.34886705      -0.53925458       1.71998437       0.73816663
H       -0.04022791       4.54027891       9.86407852      -0.00305622    -609.25875057      -0.56866310       0.71796843      -0.28414150
H        8.02148342      11.12275314      10.48928261      -0.00312364    -609.31288741      -1.08839638       0.48306013      -0.54617037
H        0.09532759       8.26012897       1.79183185      -0.00350837    -609.28544385      -0.54831522      -0.61292421      -0.29063878
H        7.72871637       0.79534656       2.75243020      -0.00200162    -609.29189678      -0.17698928       0.42464606       0.87615056
H        1.69473922       7.87805700       2.41480494      -0.00261767    -609.41418911      -1.02818205       0.14516929       0.39876812
H        6.37811041       1.00736821       3.93972015      -0.00639721    -609.16103090      -0.77741607       0.64238451       1.19449278
H       12.62572479       8.19976997       3.54048896      -0.00325523    -609.32525072      -0.24729788       0.55130505       0.80645296
H        6.30564785       1.12179649       2.01529050      -0.00339476    -609.27524933      -0.95474313       1.10911276       0.69986310
H       11.90590000       7.50413704       9.40753937       0.00386564    -608.86475566       2.06436158      -2.16232309      -0.63023278
H        5.52067232       0.36279455      10.32570648      -0.00118382    -609.38841912       0.17181512       0.07837422      -0.80594653
H        1.09320390       6.64243126      10.05491352       0.00189439    -609.13407897       2.68954358       0.06845274       5.62293078
H        6.83288622       0.77375078       9.23283672       0.00004467    -609.42179322      -0.89338118      -0.00458628       0.15472423
H        1.38946736       6.94191265       8.49966335       0.00145207    -609.26397218      -1.83434048      -1.33482505       1.23062549
H        5.42232561      -0.08496055       8.51500130      -0.00131334    -609.36308973       1.17619486       1.02458104       2.27566756
H       12.69511604       6.04796839       3.79113698      -0.00122423    -609.47910911       0.26152631      -0.12752037      -0.32295577
H        6.01471090      11.24243450       3.22616243       0.00191689    -609.53119660      -0.83554727      -0.34631613       0.71713452
H        1.30975521       5.82282400       2.31333327      -0.00091888    -609.36254557      -0.76937994       0.06448653       0.80225751
H        7.55417538      10.84192657       2.91571212      -0.00026169    -609.44722319       0.42233582       0.65898285       0.18428126
H       11.97134304       5.77382183       2.34369564       0.00106103    -609.50410531      -0.81522850       0.29504465      -0.38475175
H        6.52339602      11.35478020       1.75029111       0.00000959    -609.48830732       0.13386664       0.35049834      -0.69368024
H       -0.18517369       0.56610137      10.33587074      -0.00060134    -609.49230039      -0.54198144      -1.26431272      -1.77335661
H        8.25735855       7.11277342       9.46700859      -0.00039475    -609.39328947      -1.55148120      -2.60860949      -1.29637238
H        8.40981674       5.32753372       9.41068268      -0.00091713    -609.43294705      -1.38903600       1.17591331      -0.73559618
H       -0.21654010      11.29084682      10.27788639       0.00006325    -609.41417628       0.30168092      -0.94728065      -0.04616155
H        0.10290575      -0.36057094       8.83865261      -0.00003875    -609.44066576      -0.02617306      -0.02062783       0.32490985
H        7.56690359       6.14507246       8.16034794      -0.00004838    -609.35594929      -0.48248429       0.06144686      -2.59779026
H        5.75461578       6.86043549       9.42897320      -0.00117348    -609.35333970       0.82785011      -1.83099104       1.70282103
H       10.47510052       1.04524601       8.54971313      -0.00271813    -609.29320031      -0.46634125      -0.49714780       0.62405005
H        6.63852978       6.13178968      11.03326416      -0.00410699    -609.14697370      -0.51217183      -0.57567691      -1.25183417
H       10.30812550      12.60672665      10.07869053      -0.00384904    -609.00824297      -2.70342610       0.18697883       2.72847100
H        6.03054714       5.01121616       9.50022697      -0.00252775    -609.28910524      -0.16827211       0.64554873       1.34605147
H       10.52495098      11.61598587       8.42319679      -0.00335375    -609.26729663      -0.97591278       0.40011265       1.16837165
H        7.69407749       5.63068438       2.13928175      -0.00389761    -609.30754954      -0.13163590       0.98905481       0.94691628
H        0.24341740       1.26156104       2.88988113      -0.00219238    -609.37171763       0.24528488      -1.32993220      -0.39252081
H        7.25828028       4.34745789       3.04595613      -0.00207047    -609.18158642      -0.50336499      -0.65648475       0.14640117
H        1.58658659      12.38817501       1.86553848      -0.00311566    -609.30699272      -1.21435842      -0.60790910       1.27237424
H        7.86552715       5.49481153       4.03827953      -0.00411949    -609.26754785      -0.06544298       1.23697595       0.19784670
H        1.11622429       0.03701490       3.80080485      -0.00292052    -609.37300880      -0.91790695      -0.45376827      -1.67794663
H       11.86349392      10.79829884       3.33211517       0.00094446    -609.31567146       0.59756712      -0.42884675      -0.53567168
H        5.50633812       5.25399017       4.09656858       0.00033843    -609.43707050       0.08588924       0.70793077       0.58442394
H       11.55430222      11.64822388       1.86968637      -0.00107916    -609.36658856      -0.35459368      -0.39620737      -0.27211936
H        5.11069250       5.24063873       2.57527018      -0.00044123    -609.44967104       1.82288763       1.53675483       0.50293871
H        5.53193331       6.83491278       3.37106395       0.00042439    -609.40876829       0.40657825      -1.43559128      -0.35724269
H       10.93693829      -0.06617591       3.40995979       0.00049862    -609.38156824      -1.36697577       1.20321508       0.54541168
96
Lattice="12.299111366271973 0.0 0.0 0.397482693195343 12.292691230773926 0.0 0.0 0.0 12.580405235290527" Properties=species:S:1:pos:R:3:initial_charges:R:1:energies:R:1:forces:R:3 original_dataset_index=298 energy=-58453.38726891743 pbc="F F F"
Pb       9.87409592       9.43269920      12.15338230      -0.14786568    -606.18902185       0.09095944       0.41081440       0.84066925
Pb       2.60515594       3.09567928      12.22725487      -0.13135526    -605.99662229      -0.10056080      -0.28753552       0.20850850
Pb       3.50331688       8.60757828      12.58615398      -0.13623238    -606.09269913      -0.16834425       0.64103025      -0.21921214
Pb       8.66095448       3.71130705      12.68805885      -0.10587509    -605.39247726       0.19765180      -0.18966004       0.01234825
Pb       9.89801502       8.66703701       6.30467749      -0.12505189    -605.80343535      -0.06499306       0.87043758      -0.43467686
Pb       2.92179847       3.36260676       6.33249950      -0.13844882    -606.05997585      -0.08465679       0.21560725      -0.44022060
Pb       9.33180809       2.78932238       6.70856428      -0.13554451    -606.04080652      -0.07915679      -0.51033735      -0.48858954
Pb       3.34949732       9.35745525       6.09432983      -0.14333241    -606.04986267      -0.69097671      -0.00429245       0.51662388
I        9.80696678       8.63018608       9.28642845       0.08891432    -608.53522235       0.13778790      -0.11124904      -0.45615778
I        3.66354823       3.34248090       9.28107071       0.09797409    -608.65438914       0.16044677       0.15781063       0.50133167
I        9.61399174       2.48136950       3.62054968       0.09623115    -608.47339018      -0.63313983       0.43460870      -0.35494258
I        4.34762144       9.60410404       3.29157948       0.07705954    -608.34598627      -0.22857937      -0.35228803      -0.62124317
I        2.92402983       3.00023580       3.00463915       0.08541885    -608.44144501      -0.66039899      -0.25136201       0.08422917
I        9.52832413       9.50917149       2.76462269       0.07603952    -608.32348472      -0.20594270      -0.09771870       0.29715599
I        3.65064788       9.10964966       9.49732971       0.06671382    -608.30722366      -0.12680630       0.05059024       0.33367995
I        9.17359924       3.30071855       9.70978737       0.08686295    -608.56675458      -0.06193937       0.26339227       0.69869393
I       -0.76117808       1.90649855      13.05002880       0.12736140    -608.81967270      -0.04009720      -0.03179848      -0.70553947
I        6.73126554       8.94333935      12.35046959       0.06710023    -608.27524885      -0.28518188       0.16826246       0.26634940
I       10.11678028       6.47362137       0.17302027       0.10261670    -608.63717077      -0.08673125      -1.03107620      -0.05395098
I        4.40718651      12.43180561      -0.03348681       0.08524683    -608.35567509       0.63793250       0.11618803      -0.91416031
I       12.79724503       9.92703533       6.56009912       0.08887190    -608.51047940      -0.70227359      -0.16103548       0.13717569
I        6.03188419       2.96749353       5.91896820       0.07179488    -608.31629913       0.71798681       0.54177038       0.07164299
I        3.33448219       6.51603508       5.82892609       0.07855514    -608.39954636      -0.00314099      -1.23839803      -0.25223646
I        9.00215340      -0.42338917       6.01613998       0.07736424    -608.38261270      -0.08006106       0.04131125       0.66097236
I       12.82569885      10.09248161       0.15783240       0.07539007    -608.40613636       0.35299850       0.03425241       0.05107085
I        5.43588781       3.92456436       0.50531000       0.07677345    -608.36616217       0.43510156      -0.12291942      -0.07516593
I        1.77106214       6.21435261      12.10938358       0.08175498    -608.47378021       0.12541996      -0.42042936       0.30640276
I        8.24023819       0.06645958      12.38789749       0.11309446    -608.74056640       0.66201237       0.84691514      -0.08366103
I        0.20987611       2.11926889       6.43977642       0.06487194    -608.21468379      -0.62737666       0.67464750       1.07170354
I        6.44686460       9.25980663       6.85806561       0.09890531    -608.68191717       0.39718858       0.32095698      -0.37227992
I       10.08078957       5.69301033       6.06442738       0.09859322    -608.62546844      -0.06343244      -0.12893862      -0.05880439
I        4.14510012      12.47639179       6.36757231       0.09898239    -608.59580025       0.19045413      -0.61431339      -0.24994139
N        6.32237530       6.07769442       4.06870842       0.01215756    -610.36758001      -0.30631174      -1.15961800      -0.15364869
N       11.88919258      11.64070320       3.72080946       0.04884825    -610.49133962       0.54819977      -0.99294499      -1.02190413
N        1.34347820       6.37341690       8.55527401       0.00543795    -610.72215174      -0.30692527       0.21238160      -0.64334839
N        5.30148220       0.20146801       9.48135471       0.04690728    -610.48194937      -0.95362638      -3.32594145      -0.14219665
N        6.97557449       6.77081537       9.86530304       0.01643733    -610.37782343      -0.60786816      -2.45714361       3.63514653
N        0.65603453       0.29087594       9.44928360       0.00515496    -610.66382288      -2.15229610       1.49867734       0.34035793
N       11.95297813       4.61578941       2.60207868       0.04663273    -610.44830037       0.29451151      -0.20684308       2.16817002
N        6.50717020      11.80483913       2.51858401       0.04069329    -610.23194293       3.96024201      -2.33921756       0.14233614
C        6.27766371       6.11611032      10.81918335      -0.11150338    -610.03648230       1.30341091       2.52497822      -2.64061916
C       11.96980762      12.14661980       9.46797657      -0.16940881    -610.00546285      -0.35851001       1.98962137       2.38396004
C        0.19260889       5.88845682       3.23113799      -0.17114787    -610.06008384      -1.28334086      -0.20086991       0.43277882
C        6.55409098       0.63748688       3.51237106      -0.17579801    -609.83791898       0.18411468      -2.46216021       1.41050854
C        5.86586618       4.91019583       3.49555373      -0.10878127    -610.03236122       0.55875980       3.91447898       3.40677206
C        0.16518986       0.46911761       3.77447653      -0.16677980    -610.07082795       0.12878468      -0.74862107      -1.55930427
C       12.54685879       5.61586952       9.01364803      -0.16192201    -609.97384646      -0.34600874      -1.51105199       1.16095997
C        7.13354158      12.52129459       9.29594040      -0.16916516    -610.08541340       1.46212541       0.98024765      -0.37157915
H       12.25555229       5.67008209      10.13843536       0.00110044    -609.15197248       0.25831554       0.20077834      -1.29259560
H        7.39831161      12.32834625       8.24487400      -0.00321641    -609.35239382      -0.24892647       0.38492106       0.01697591
H       11.75473690       5.99427271       8.40048218      -0.00051730    -609.13694690      -1.23618587      -0.29380313      -0.00977480
H        7.52811241      13.53555489       9.61734486      -0.00272639    -609.38148711      -0.18778685      -1.28682095      -0.27545670
H        0.40265408       4.50341034       8.82805157      -0.00280255    -609.28061666      -0.18124865       1.04542935      -0.06649111
H        7.59683609      11.68833065       9.83531094      -0.00282167    -609.32373926      -0.10399593       0.25488405       0.18832821
H       -0.25411955       6.07075787       4.20702934      -0.00161505    -609.25995973       0.90668384      -0.87648595       0.77267082
H        7.06065512       0.06105761       4.31133175      -0.00134224    -609.16879110       0.51251550       0.72227845      -0.38470128
H       -0.36438286       6.66768932       2.77589393      -0.00136078    -609.26465654      -0.51850683       0.99806272      -1.39173817
H        5.58863258       0.76086909       4.00468826       0.00037409    -609.22385748       0.08679234       1.10611107       0.02082836
H       13.52228546       6.13857412       3.06643581      -0.00400987    -609.30287705       0.70709145      -0.59040362       0.14829749
H        7.10867262       1.54057837       3.22084737      -0.00345259    -609.12311554      -0.29278892      -0.57567921      -0.57120754
H        6.58839226      10.59721470      15.59003448      -0.00235686    -608.92399567      -0.91898912       4.07946233      -1.66555009
H        5.00680017      -0.07870644      10.48523140       0.00023652    -609.45212209       0.21292234       0.01328816      -0.80296024
H        2.24396038       6.08618164       8.84310055       0.00063903    -609.16966984       1.04446094       0.22515632       0.54563736
H        4.81999111       1.05457819       9.35178185       0.00090590    -609.42010434      -0.59983312       1.94741205      -0.53139946
H        1.15121388       7.36160231       8.45261002      -0.00009680    -609.19649187       0.51293908       0.01376725       0.21110448
H        4.87457466      -0.46954045       8.75287151      -0.00059140    -609.47502803       0.25678189       0.77465533       1.33889851
H       11.63376808       4.98706484       1.71430278      -0.00134342    -609.38977412      -0.10823411      -0.82910777      -1.13169732
H        5.17235136      10.59806347       6.00833178      -0.00226907    -608.05657799       0.94188401       0.70043256       0.58225671
H       -1.21198368       4.23016787       3.14455605       0.00012016    -609.44535572       0.73124016       0.48754088      -0.57718391
H        6.74676085      11.81206703       1.47670496       0.00202837    -609.26411124       0.99626033      -0.21755833       1.39141028
H       12.57133961       3.73316622       2.60674906       0.00008548    -609.40779758      -0.14055438       1.65944754      -0.41301846
H        5.70304871      12.30736732       2.43593860       0.00451589    -609.16238847      -4.65945710      -0.36049793      -0.47324549
H       -2.30497217       1.05895579      12.17124653      -0.00128370    -608.13799683      -0.09666188      -0.30164684       0.55870995
H        7.89381790       7.08537722      10.13583660       0.00230441    -609.23365976       0.74650910       0.21922800       0.14899183
H        8.80755043       6.68356609      15.46978951       0.01261650    -608.95872947       0.43206024      -0.25603883       0.12032599
H        1.38290668      12.64598846      10.41036224      -0.00186397    -609.04138010       0.81007990      -0.67740033      -0.71875223
H        1.06677520      -0.16857807       8.68774986      -0.00044116    -609.04678157       1.89823499      -0.76417177      -0.42317946
H        6.62945032       7.27836370       9.09379864       0.00265484    -609.11540640      -1.20764426       0.19396605      -1.41897767
H        6.65074158       6.03876448      11.84060192      -0.00330994    -608.92999771       0.30327755      -0.16584872      -0.49671321
H       11.51152325      -1.16116071       9.75988007      -0.00129942    -609.21256716      -0.52045486      -1.50989700       0.38188799
H       26.39588737       0.19621526       1.62158978       0.01155581    -608.80452624       1.08311201      -1.73540880      -0.64005630
H       11.32534409      12.32328796       8.63880157      -0.00445277    -609.20431960       0.10271443       0.13784657      -1.51514449
H        5.27675867       5.83285093      10.56521893      -0.00383587    -608.98735336      -0.68697135      -0.24048976      -0.00143083
H       11.45635986      12.79508877      10.24390507      -0.00202291    -609.28129463       0.21779957      -0.76635940      -0.29443318
H        9.19945908       6.15826464       3.29129982       0.01352920    -608.96682607      -0.47391316       0.13986259      -0.13670756
H        0.67725229       0.45068085       4.70410395      -0.00398079    -609.23424232       0.87366455      -0.20563895       0.24074923
H        4.73639584       4.74187946       3.68559861      -0.00554395    -608.93296901       1.87485103      -0.38555570      -0.75279430
H        0.01473446      13.65929794       3.64413977       0.00046088    -609.22067165      -0.74211241       0.90061074       0.67111317
H        6.72915363       4.39124584       3.11680651      -0.00444898    -608.84349574      -0.53245011      -0.86566957      -0.71046880
H        0.75536436       0.53288531       2.83754730      -0.00682529    -609.31154734       0.27905353      -0.96476235       0.63718059
H       11.15443707      11.92422676       3.06446528      -0.00079051    -609.51223209      -0.34864336      -0.31757862      -0.00513171
H        7.34120131       6.37606430       3.96829009      -0.00118446    -609.07939388      -1.51986468      -0.79356843       0.21404217
H       11.39286327      11.35671997       4.62169266      -0.00052797    -609.42316271       0.48809774       0.67036328      -0.58738146
H       15.04142380      11.88588619       1.27520919       0.01180398    -608.89817965      -2.01517803       1.74692704       1.36487980
H        5.76319456       6.55056334       4.85763931       0.00151568    -609.12276428       0.34034777      -0.45794177      -1.53464698
H       11.92684746      -1.52451932       3.30745268      -0.00066111    -609.53697410      -0.51469979       0.86468542       0.44238577
96
Lattice="12.299111366271973 0.0 0.0 0.397482693195343 12.292691230773926 0.0 0.0 0.0 12.580405235290527" Properties=species:S:1:pos:R:3:initial_charges:R:1:energies:R:1:forces:R:3 original_dataset_index=299 energy=-58453.88366634199 pbc="F F F"
Pb       9.87106037       9.42785358      12.16051579      -0.14887732    -606.20187247       0.11187892       0.45804478       0.78817733
Pb       2.61082101       3.10041404      12.22695637      -0.13391663    -606.05123963      -0.08698574      -0.34920768       0.19953257
Pb       3.50007200       8.60578060      12.58712864      -0.13721164    -606.12045553      -0.15673576       0.72942581      -0.15576208
Pb       8.66403770       3.71193171      12.69071198      -0.10779569    -605.44298697       0.18772775      -0.17496005       0.03584624
Pb       9.90354156       8.66869164       6.30335140      -0.12516232    -605.80377364      -0.04523901       0.86811950      -0.43442723
Pb       2.92195606       3.35781169       6.33519411      -0.13836162    -606.05959675      -0.09210717       0.31542699      -0.42724562
Pb       9.33220959       2.78927207       6.70780039      -0.13633244    -606.05640079      -0.05595654      -0.50934767      -0.53625299
Pb       3.34496546       9.35996342       6.10021734      -0.14871776    -606.13820952      -0.38338293       0.05370547       0.39268817
I        9.80271149       8.62932491       9.28541088       0.08861443    -608.53262587       0.12060549      -0.11719669      -0.42610185
I        3.66372609       3.34406185       9.28675938       0.09802763    -608.65704713       0.16834016       0.13680502       0.44471472
I        9.61578941       2.48678803       3.61026287       0.09137105    -608.43383568      -0.73199045       0.34991591      -0.26279333
I        4.34939337       9.59910107       3.28848147       0.07282328    -608.30835582      -0.35422796      -0.41257431      -0.50360388
I        2.93120003       2.99446106       3.00077176       0.08675165    -608.45858552      -0.62377924      -0.20131368       0.13121898
I        9.52355003       9.51154041       2.76670003       0.07779941    -608.33159306      -0.21529463      -0.03693324       0.28054470
I        3.65165949       9.10619164       9.49088192       0.06738833    -608.31583154      -0.10566729       0.03613051       0.37328589
I        9.17120457       3.30132246       9.70385647       0.08752784    -608.57403717      -0.07687128       0.26767063       0.69989613
I       -0.77159536       1.90697849      13.04703045       0.12358627    -608.78110815      -0.02423487      -0.03198833      -0.77256355
I        6.72957802       8.94963074      12.34916878       0.06998223    -608.30336313      -0.27673614       0.26692088       0.33818252
I       10.11212349       6.47676134       0.17303324       0.10334937    -608.65008926      -0.07395549      -1.08269961      -0.02035737
I        4.41610241      12.43692112      -0.04076081       0.09534232    -608.44753324       0.06239888       0.13905516      -0.52087806
I       12.80027294       9.92869949       6.57043743       0.08946209    -608.51286625      -0.73137229      -0.16410854       0.12792138
I        6.02697802       2.96820354       5.91977358       0.07468994    -608.35053670       0.73419754       0.51788063      -0.02229555
I        3.33803344       6.51120090       5.82697010       0.07457937    -608.36184310       0.03222319      -1.20494169      -0.27759524
I        9.00461197      -0.42106920       6.02008772       0.07759431    -608.38576267      -0.05629310       0.03189229       0.65822209
I       12.82142544      10.08963871       0.15270188       0.07367852    -608.38855158       0.37142338       0.02411950       0.02933057
I        5.43217564       3.92774677       0.50551724       0.07647009    -608.36976989       0.50426041      -0.03102426      -0.07699788
I        1.77832651       6.21446371      12.10379696       0.08288678    -608.48343581       0.10668466      -0.42521200       0.33002568
I        8.24650860       0.06835010      12.37987995       0.11217304    -608.73649217       0.76639622       0.88623834      -0.13307863
I        0.20767136       2.12314081       6.44749069       0.06446845    -608.21419107      -0.62242234       0.68600740       1.04244420
I        6.44806576       9.26663685       6.85472250       0.10289875    -608.72003383       0.38888562       0.31853230      -0.36678864
I       10.07405090       5.69414377       6.06746149       0.09930378    -608.63561924      -0.05657708      -0.11857088      -0.07794304
I        4.14116573      12.46675873       6.36992598       0.09961666    -608.61224950       0.23485131      -0.61876142      -0.27036192
N        6.32852793       6.08885193       4.04963732       0.01319545    -610.37113643      -2.22755821      -2.24689047       0.07566461
N       11.90591908      11.61594582       3.71414733       0.04855004    -610.50002788      -0.28010146      -0.09167899      -1.49872584
N        1.34541726       6.35876083       8.52964497       0.00655635    -610.70922128      -0.77029465       0.41852149      -0.79153177
N        5.30648518       0.19622633       9.48111820       0.04719273    -610.48642583      -1.40616083      -2.46156981      -0.02469614
N        6.96715832       6.77846241       9.87967396       0.01643050    -610.27812195      -0.74980585      -0.02297920       0.21793104
N        0.65953368       0.30397296       9.44139862       0.00524553    -610.62308104      -2.35003030       1.92842160       1.33721743
N       11.93844128       4.58928156       2.60489225       0.04714673    -610.46573040       0.58031063       1.62443794       1.03614062
N        6.51730061      11.79846478       2.50865507       0.04573503    -610.32153624       2.98061691      -1.99468025       1.56826206
C        6.27933168       6.14189911      10.80975914      -0.11772721    -610.07358011       0.78834675       1.86528663      -3.09771019
C       11.97263908      12.14534473       9.48498917      -0.16863495    -609.97360733      -1.15789208       0.68495151       0.53041639
C        0.20332792       5.87214231       3.25183082      -0.17024612    -610.07722704      -3.47034772       0.32225902      -1.27168819
C        6.58020210       0.60288513       3.52071977      -0.17495313    -609.83507934      -2.73089770      -3.39851788       2.25682842
C        5.87122202       4.90143394       3.49848127      -0.10296866    -609.98721438      -1.53286431       4.32430464       3.29976494
C        0.15951440       0.46167195       3.78190041      -0.16725814    -610.10328440      -0.65005823      -0.45946139      -2.07855132
C       12.54017544       5.60607719       9.02942467      -0.16331434    -609.97938091       0.16018270       0.64586649       0.70435139
C        7.14436436      12.51936817       9.30523109      -0.16984913    -610.09600052       0.66934658      -0.20210413      -0.62003665
H       12.33829212       5.65776348      10.13566875       0.00078419    -609.16938129      -0.27746054       0.48201495      -0.62885406
H        7.42391396      12.31797981       8.26869297      -0.00327019    -609.36558664      -0.20843993       0.04459677      -0.19522384
H       11.77705479       6.01361799       8.39342594      -0.00040999    -609.16948323      -1.38179076      -0.39251392       0.32258225
H        7.50066328      13.50709057       9.55431557      -0.00268940    -609.33854669       0.39862255       0.24106396       0.34703770
H        0.37054649       4.56615782       8.86481667      -0.00303517    -609.17943810       0.10093105      -1.32206293      -0.62727135
H        7.59822750      11.73010445       9.91426468      -0.00267182    -609.34688160      -0.04647016       0.24801963      -0.06851469
H       -0.18646826       6.09809065       4.21694994      -0.00173108    -609.21719973       0.51089063      -0.95728480       1.44852498
H        7.06115818       0.08634274       4.37288523      -0.00317220    -609.19785174       0.29609730       0.48525841      -0.60281414
H       -0.41715413       6.64796352       2.76828194      -0.00052879    -609.33268003       0.28151951       0.09902256      -0.57792001
H        5.53069210       0.80829906       3.92224741       0.00074129    -609.29605349       1.45531938       0.46061334      -0.00201534
H       13.47750473       6.14586878       3.02939153      -0.00439786    -609.23640283       2.12461266      -0.27645954      -0.24493107
H        7.02236652       1.49275851       3.23938298      -0.00387498    -609.06711929       1.15592418       1.39735260      -1.43369823
H        6.56551838      10.69859219      15.55025005      -0.00257774    -609.13385756      -1.19608792       3.33087078      -0.88517665
H        5.03267336      -0.09811114      10.48463154       0.00005842    -609.47677746       0.13080289       0.13933696      -0.80726431
H        2.24526262       6.14958572       8.86619091       0.00108743    -609.16842104       1.23103187       0.08182519       0.75464006
H        4.80619764       1.07103252       9.36346340       0.00052035    -609.45585715      -0.06898182       0.92113507      -0.37584205
H        1.10157311       7.34280682       8.46413612      -0.00034730    -609.22397431       0.63868137      -0.02123898       0.15586179
H        4.86144209      -0.48848480       8.78446388      -0.00063229    -609.49843705       0.35539713       0.80144460       1.10173721
H       11.57051277       4.95393419       1.70346081      -0.00185309    -609.42369545       0.37893166      -0.79142200      -0.21580067
H        5.28365946      10.68648338       6.00187159      -0.00287842    -608.05576907       0.62414556       0.51096021       0.59475842
H       -1.20388412       4.23112249       3.12854266       0.00032654    -609.44326275       0.30175712      -0.08469515       0.00812367
H        6.85922098      11.58075714       1.56770515       0.00198169    -609.34059767       1.19440780       0.66132403      -0.15130019
H       12.61182690       3.79266691       2.54708171      -0.00007992    -609.42122765      -0.02879256       0.57547311      -0.18328330
H        5.74018526      12.36887646       2.34767556       0.00317805    -609.20434250      -3.20113900      -0.91848478      -0.87388011
H       -2.30981779       1.02179623      12.06838894      -0.00160401    -608.11501338      -0.17179279      -0.31130449       0.67305870
H        7.87678194       7.16388941      10.19359303       0.00294231    -609.23012334      -0.20386027       0.04661743      -0.40966898
H        8.61411190       6.66719484      15.52274990       0.01148684    -608.97013005       0.75500322      -0.26479853       0.14066967
H        1.32028520      12.64426517      10.44305420      -0.00176932    -609.01676965       1.07362340      -0.70524765      -1.36683918
H        1.05621278      -0.19166386       8.69375038      -0.00058658    -608.99984083       1.92150439      -0.88274799      -0.28305754
H        6.59270000       7.21572304       8.95332813       0.00261223    -609.16829943       0.43392171      -1.33276097       1.74330537
H        6.65691710       6.10839987      11.80002022      -0.00359143    -608.95496120       0.46661723      -0.27427680       0.63982940
H       11.61384487      -1.22661710       9.75215054      -0.00098925    -609.26586634      -0.98428092       0.30091773       0.06228205
H       26.37652588       0.05538543       1.65571404       0.01335761    -608.88981808      -2.34426442       2.44905074       0.29948153
H       11.32590294      12.31696033       8.57969570      -0.00407259    -609.25279244       1.02112662      -0.36749843       0.08940943
H        5.33229589       5.75555468      10.50933743      -0.00386423    -609.01583672      -0.86925010      -0.32513047       0.11267968
H       11.41635704      12.81475449      10.21819210      -0.00251998    -609.23520577       0.45780670      -1.05385504      -0.18728492
H        9.13306904       6.27360535       3.36353254       0.01341210    -608.94983021      -0.64109496       0.16753631      -0.25666111
H        0.65310442       0.48429444       4.70194292      -0.00441753    -609.19700955       1.12077333      -0.19443504       0.90284303
H        4.63835239       4.76039457       3.58960605      -0.00466155    -608.84550039       3.21769248      -0.29110738      -0.49423633
H       -0.02818763      13.63316345       3.60548139       0.00023421    -609.24736493      -0.47979884       0.64830771       0.75922076
H        6.73879862       4.40193415       3.19423461      -0.00382971    -608.66948988       0.38108691      -1.63539712      -1.23004158
H        0.74718595       0.51972902       2.86107588      -0.00666115    -609.19020234       0.43111845      -0.85414714       0.46040616
H       11.14593506      11.92766762       3.05470777      -0.00148491    -609.52336684       0.47899326      -0.80081117       0.39105060
H        7.30299139       6.33368921       4.04060698      -0.00055433    -609.03839953       0.65344732      -0.33910520      -0.11799576
H       11.38921261      11.35546303       4.58557510      -0.00048893    -609.44555357       0.30094056       0.50809878       0.04693763
H       14.92489910      11.85262299       1.60017109       0.01202118    -608.90154829       2.09459277      -2.54542156      -0.16428057
H        5.81327915       6.47599840       4.87265253       0.00185591    -609.09512052      -0.33603974       0.23300487      -0.97705337
H       11.94678307      -1.55037582       3.34514856      -0.00046502    -609.53244873      -0.42061219       0.56514363       0.07584855
96
Lattice="12.299111366271973 0.0 0.0 0.397482693195343 12.292691230773926 0.0 0.0 0.0 12.580405235290527" Properties=species:S:1:pos:R:3:initial_charges:R:1:energies:R:1:forces:R:3 original_dataset_index=428 energy=-58452.416941915624 pbc="F F F"
Pb       9.59018326       9.30039692      12.54566765      -0.12753275    -605.92565196       0.15678335       0.02490924       0.62059272
Pb       2.83417368       2.96259427      12.39221764      -0.14480752    -606.20356638       0.79029539       0.69989019      -0.25627047
Pb       3.52201772       8.97706699      12.69176292      -0.14508486    -606.25901540      -0.16965744      -0.41201208      -0.53482638
Pb       8.47986698       3.25344920      12.75730038      -0.14269641    -606.14594383       0.34401156       0.22122565       0.03545270
Pb      10.32987499       8.92846394       6.09877539      -0.12075451    -605.72581882      -0.32149654       0.09578824       0.26175079
Pb       2.93454885       3.11071682       6.31763697      -0.14878297    -606.28889181      -0.02778555       0.04020012       0.18602996
Pb       9.15121937       2.72683787       6.46445465      -0.14268105    -606.10511823       0.41341633       0.13231713       0.01781848
Pb       3.19771528       9.21302128       6.25714207      -0.14966083    -606.28491036       0.29611760       0.30677514      -0.00569411
I        9.21859646       8.77946281       9.42397308       0.11556350    -608.86291744       0.66039142      -0.49538023      -0.36355789
I        3.87686324       3.17670655       9.37280560       0.07947993    -608.39187538      -0.40557772      -0.19332169       0.40243782
I        9.41988945       2.85781670       3.27928877       0.08688621    -608.47949786       0.28214905      -0.07509165      -0.01669870
I        4.01985407       8.95553589       3.03202057       0.08409394    -608.49598170       0.06638621       0.24581186       0.17504831
I        2.51638865       2.92679024       3.13509393       0.10852067    -608.67782297       0.03663188      -0.19762046       0.00133541
I        9.63350296       9.39117241       3.06807017       0.09093326    -608.58253315      -0.05452807      -0.13367588      -0.17856365
I        3.93171954       9.20283508       9.37750721       0.07775886    -608.33054703      -0.31461124      -0.22606913      -0.03851923
I        8.80690384       3.53414941       9.68832874       0.08372937    -608.45145011       0.35544195       0.01044251      -0.21709310
I        0.01986321       1.99966335      12.75740337       0.14132588    -608.96672003      -0.44116763       0.65153320       1.00439183
I        6.61996126       8.64404869      11.88523388       0.06380032    -608.28016649       0.13376363      -0.16093086       0.46277348
I       10.54980850       6.08435869      -0.29742894       0.09660439    -608.54564951      -0.59485542       0.55029344      -0.58182229
I        4.56554985      12.34157372       0.09092529       0.11905579    -608.87947357      -0.24451421       0.06471409      -0.38140440
I       12.90564919      10.25038910       7.41987753       0.06444675    -608.26979141      -0.50999224      -0.50401297       0.27868112
I        6.25174189       3.40710354       6.43358374       0.07700074    -608.32729547      -0.52535716      -0.11543779      -0.89588765
I        3.38912892       6.27385664       5.71471310       0.07320455    -608.37469966      -0.23586533      -0.63315118       0.14641388
I        9.22069931      -0.29063112       6.09374189       0.09861302    -608.55205236       0.12885946       0.04766583       0.24714110
I       12.98627186      10.11247730       0.09967243       0.07658535    -608.45783688      -0.32990656       0.12220409      -0.06365989
I        5.81888723       4.60576487       0.36200124       0.07741088    -608.41721099      -0.14382222      -0.15856659       0.00629489
I        1.86589539       5.97757912      12.43945980       0.07264525    -608.29788495       0.29960231       0.04279275       0.49403273
I        7.83179092       0.24041304      12.04409122       0.10247000    -608.69446730       0.32878484       0.00759532      -0.15030080
I       -0.01394573       2.14944553       6.85292006       0.07913531    -608.37310606       0.17223047       0.34168781      -0.07762505
I        6.88642311       9.21263218       6.25896788       0.09949750    -608.63826352       0.39643596      -0.13071757       0.23642210
I        9.45629120       5.91452551       5.99567223       0.09689799    -608.55582856      -0.37229681       0.01642456      -0.32229739
I        3.80989194      12.43327332       6.34435797       0.08568665    -608.52986925       0.31462884      -0.23869007      -0.16640586
N        6.64150190       6.66633844       3.82717776       0.00714125    -610.21010413      -0.81075210       1.79490399       0.24548336
N       12.58898354      12.58394146       3.81355810       0.05015788    -610.38806888      -1.73169107      -0.72210100      -2.12395026
N        0.08795989       5.89681816       7.50066280       0.01312826    -610.27624903      -2.50948637      -0.28459537       1.61339201
N        5.45326424      -0.49413866       9.17813683       0.05022520    -610.52853355       2.87447552      -0.94813652       0.37383687
N        6.70980597       6.46476650       8.57256794       0.01409731    -610.21666373       0.28212436       2.64615914      -0.22759019
N        0.48375371       0.92763537      10.17534351       0.00872682    -610.55854439      -0.38256327      -1.06883006       0.01491423
N       12.49026585       5.51679659       2.89728308       0.04935095    -610.46274546      -0.18795635       0.60768773       0.73958932
N        7.04936361      12.27212906       3.85613871       0.00298513    -610.40973421       2.94480574      -1.83960108       6.63656020
C        6.52114820       5.38527679       9.19892597      -0.12844558    -610.08700382      -0.11201017      -0.45547123      -0.29909700
C       11.86783600      12.67535591       9.76679516      -0.16229866    -610.01653728      -0.65595197       0.00957056       1.22775984
C        0.49834198       7.00061703       3.09968615      -0.16726583    -610.06773398      -0.08206651      -1.19947276       0.55711875
C        6.28540850       0.85199255       2.79853082      -0.16166164    -609.61788441      -1.87719423       1.93729346       0.57149524
C        6.57769537       5.41886616       3.71484447      -0.12580277    -610.17521490       0.58823685      -1.84063001      -0.47258261
C        0.41883054      -1.14347708       3.85766363      -0.17074631    -610.08498635      -0.60784195       0.00304067      -0.38460942
C       12.60255241       5.31989145       8.71223927      -0.11802877    -609.97294561       5.17231653       2.09796869      -2.79962858
C        6.88635683      12.80881310       8.71238422      -0.16579719    -610.06614978      -1.15426500       0.28832891      -0.13512108
H       15.54123878       6.41045713       9.92711163       0.00984228    -608.97357058      -1.50661511      -0.93919157      -0.87225463
H        6.89611626      12.73096180       7.62821245      -0.00416213    -609.36258867       0.00382499       0.09580459      -0.26385518
H       12.10230255       4.44208813       8.86272717      -0.00381376    -608.64630110      -2.03047223      -1.94152026       0.98951537
H        6.54916382      13.83481121       9.01352787      -0.00409570    -609.38080242       0.40180284      -0.91703879      -0.13740760
H        1.45449293       5.26221228       8.91244602      -0.00756976    -608.85746202      -1.91135824       0.23324709       0.41966009
H        7.85906458      12.53471947       9.09787846      -0.00396658    -609.33445372       0.13916930       0.04992960       0.28706044
H       -0.05895449       7.36265707       3.97224045      -0.00496062    -609.34902769       0.35013512      -0.01194972       0.00039715
H        5.08887720       0.94317722       2.45352435      -0.00234198    -609.05794263       2.53793638      -0.93020919       1.22399523
H        0.06941041       7.36944723       2.20053005      -0.00521274    -609.34929073      -0.26037109       1.18045786      -0.73051899
H        6.86704588       0.42493114       2.03408074      -0.00146254    -608.91074762       0.42753751      -0.00740754      -1.97759393
H       13.89187527       7.14320230       3.11802912      -0.00597513    -609.38358440      -0.44463802      -0.00591917       0.21491619
H        6.48543262       1.98090422       2.88755083      -0.00131765    -609.01829502       0.35788125      -1.10769270       0.22783995
H        6.27214909      12.93920135      12.12436676      -0.00008990    -608.15875968       0.00630909      -0.54232973       0.33119337
H        4.97909164      -0.23533472      10.02476215      -0.00034950    -609.44692415      -0.25348708       0.18819295       1.11361090
H        0.56876940       6.65230274       7.00074196       0.00138510    -609.12525961       0.49901089      -0.23325969       0.66550921
H        4.72168398      -0.66614604       8.52867222      -0.00069332    -609.39121775      -1.15104336       0.06241611      -1.51023300
H       -0.95159584       5.86179829       7.30547142       0.00194136    -609.16664984       1.14392593       0.09181152      -0.62356206
H        5.89648819      -1.45665419       9.30961132       0.00013613    -609.49243900      -0.64290904       1.17296363       0.09756896
H       12.72935390       5.41431522       1.89023316       0.00026660    -609.41236862       0.01052559      -0.70016776      -0.12682463
H        5.13052988       8.52924633       6.68684530      -0.00322456    -608.13054319       0.05361127       0.33291825      -0.19146978
H       -0.80549443       5.29686546       3.08501649       0.00018543    -609.49545474       0.20850174       0.09699717      -0.27282608
H        7.29405260      12.56296158       5.02630949       0.00454603    -608.89002220      -1.96704085       0.26544449      -4.07439737
H       13.04867935       4.85205698       3.46723533       0.00099937    -609.46744263       0.19632279       0.23272940      -0.24543182
H        8.01335621      11.65641403       3.96839857       0.00344069    -608.93067417      -2.75624226       1.86921066      -2.26319969
H        0.32421461       2.93626308      14.33727741      -0.00530187    -608.10576025      -0.28859435      -0.97091712      -1.23197596
H        6.75290966       7.32917356       9.16852093       0.00355498    -609.27433199       0.14927774      -0.45573309      -0.86990514
H        8.90714836       5.83552885      14.90383434       0.01122631    -608.99583797      -0.03521441       0.01067577       0.21758221
H        1.49311721      12.43263817      10.50170708       0.00071785    -609.18476811      -0.29470436       0.93059159      -0.95975149
H        0.80807227       1.44579637       9.34580326       0.00008403    -609.15188154       0.73775869      -0.26985894       0.48167432
H        6.87727308       6.56510401       7.53672314       0.00306721    -609.18666061      -0.29547103      -0.17552812       1.04441230
H        6.40470934       5.38404942      10.24338150      -0.00499205    -609.07008167      -0.25872515       0.17506624       1.35931050
H       11.43859673      -0.20942900       8.83359432      -0.00135606    -609.21697438       0.16807563       0.41990915       0.19568747
H       14.87237072       5.97202873      -2.90213251       0.01114125    -608.89636287       2.00010797       1.13019080       0.48696866
H       11.16102028      13.52656364       9.72186756      -0.00263467    -609.29583419       0.09985280      -0.33373274      -0.21266193
H        6.36757231       4.51969433       8.63309193      -0.00358253    -608.91792091      -0.22152677      -1.27640919      -0.55904500
H       11.50263691      12.00812244      10.57988071      -0.00211947    -609.30286982       0.13141490       0.23602330      -0.30432412
H        8.57770729       6.13078642       1.72181547       0.01038807    -608.94295327      -0.07835454       0.03000528       0.08131453
H       -0.06333004      -1.67586505       4.66651106      -0.00378379    -609.29795339      -0.34344839      -0.20926581       0.01164334
H        5.79822445       4.88300896       3.19452167      -0.00315635    -609.13308589      -0.83119685       0.34023371       0.13191428
H        1.81221604      11.34373856       4.17359352      -0.00189153    -609.31115352       1.22665444      -0.50972315       0.26730479
H        7.38522863       4.78896904       3.95359993      -0.00435501    -608.97532985       1.30445943      -0.54254752       0.48935213
H        0.41386846      -1.69626510       2.87732100      -0.00444397    -609.35883209      -0.29776813       0.82692953       0.70056428
H       11.69647789      12.81208706       4.42558002      -0.00101144    -609.26257888       2.35577753      -0.15981585       0.14149412
H        7.44694996       7.23266125       4.23264170       0.00119543    -609.11015151      -1.13137058      -0.79483373      -0.44022796
H       12.08971024      12.75564480       2.89199781       0.00062126    -609.50070635       1.04308627      -0.15513384       0.48649256
H        9.66641331       7.44676971      10.66010952      -0.00340147    -608.09356272       0.14814151       0.12736939      -0.41277159
H        5.72362471       7.09586048       3.57850361       0.00287363    -609.22975096       0.77665882       1.04877075       0.11326487
H       13.12797260       0.78739381       3.77573991      -0.00145766    -609.28224534      -1.71188663       1.06858823       0.63642787
96
Lattice="12.299111366271973 0.0 0.0 0.397482693195343 12.292691230773926 0.0 0.0 0.0 12.580405235290527" Properties=species:S:1:pos:R:3:initial_charges:R:1:energies:R:1:forces:R:3 original_dataset_index=174 energy=-58455.94164030806 pbc="F F F"
Pb      10.04976463       9.98342800      12.29639053      -0.12580223    -605.75902576      -0.06030096      -0.94066681      -0.40395529
Pb       2.56438756       2.76659417      12.23680305      -0.12389974    -605.70874465      -1.10358182      -0.57391829       0.37192170
Pb       3.75855374       8.72969341      12.49868202      -0.12241718    -605.81720871      -0.04709310       0.29515949       0.25194437
Pb       8.47480202       3.48075175      13.04928207      -0.11331687    -605.47116488       1.24573851       0.37693844      -0.54932926
Pb       9.39337730       8.76911926       6.07046795      -0.13599905    -606.08397642       0.90201763      -0.26743352       0.23227394
Pb       2.80632472       3.20083714       6.02809191      -0.12629022    -605.84287103       0.29406118       1.01828766      -0.12628017
Pb       9.52392673       2.55497384       6.78864002      -0.13505483    -606.01976766      -0.56962077       0.64472089      -0.74281122
Pb       3.34906483       9.86941147       6.50611687      -0.12603185    -605.66362065      -0.00137518      -1.46802003      -1.80010947
I       10.31027699       8.37290764       9.10415363       0.06279140    -608.23327961      -0.40391442       0.24558567       0.06559378
I        3.63456059       3.24955463       9.55792427       0.10053027    -608.57597676      -0.03551469      -0.21105623      -1.10472668
I        9.10753822       2.77293181       3.22963667       0.09286334    -608.48603712       1.06983954       0.12409669       0.69705765
I        4.57260990       9.38909245       3.05706286       0.08566947    -608.48058225      -0.45130131       0.69851857      -0.27876902
I        2.26317859       3.38413358       2.94300604       0.07566826    -608.42116654       0.15372504      -0.08202298       0.56185681
I        9.69466686       9.20221043       2.69055939       0.08905991    -608.52458366      -0.21152684       0.24275177       0.10603722
I        3.44320917       9.60943222       9.24562454       0.09275359    -608.53530406       0.11563117      -0.32296216       2.04485706
I        9.44060135       3.21196961       9.62183762       0.09264260    -608.56761963      -0.19692087       0.23044876       0.72786491
I       -0.67050284       2.20510173      13.00260353       0.09097332    -608.55810516       0.27253672       0.88047754       1.20881762
I        6.74119854       8.45594120      12.47443962       0.09793900    -608.59622129       0.25957788      -0.04286110      -0.27188952
I       10.24482918       6.03644466      -0.16193227       0.08334937    -608.47464399      -0.42858448       0.01800191      -0.13031595
I        3.87138653      12.01183796       0.13156518       0.09051854    -608.57368294       0.52282921       0.12044310      -0.21562833
I       12.73895359       9.79617691       5.86411572       0.09442618    -608.56347319      -0.51573535       0.42066356       0.29335899
I        6.54183578       3.89399314       6.44952440       0.07133994    -608.37988034      -0.17032025      -0.11351332       0.11789553
I        2.86841941       6.63061619       5.82203245       0.06502791    -608.26787040       0.34610868      -0.52390556       0.10140892
I        8.29860020      -0.35043204       6.13365412       0.09977783    -608.65211791       0.42999042      -0.05113225       0.50610647
I       12.96127987      10.23656654       0.19675654       0.09444915    -608.54786221      -0.03807402      -0.09132778      -0.11420017
I        5.40719223       3.54210377       0.18491355       0.14588341    -609.02394264       0.74908535       0.22913941      -0.69042307
I        2.19727302       5.73066282      12.71597385       0.08777430    -608.50997213       0.16153363       0.96514962      -0.50614751
I        8.42262745       0.35131145      12.73784351       0.09475949    -608.57419139      -0.40570067       0.03215008       0.36262994
I        0.19224942       1.86682832       6.48196840       0.08799409    -608.54726270      -0.13390132      -0.27868367      -0.02094908
I        6.71919394       8.45362759       7.15840197       0.09917994    -608.64162357      -0.80695486      -0.06087456       0.09776018
I       10.56824303       5.64551878       5.97983742       0.07247166    -608.39373155      -0.23269052       0.16328258      -0.46825618
I        4.16387367      12.61829472       6.20159817       0.09983379    -608.64389659       0.86835884       0.66691609       0.04734099
N        6.06030464       6.56536722       3.76063871       0.00455760    -610.69028960      -0.45633811      -2.90226245       1.16207712
N       12.49392605      12.04794312       3.21946621       0.04947195    -610.51012877       0.53313116      -0.67274108       1.89344158
N        0.83473331       6.72774601       8.70591164       0.00546569    -610.71067700       1.14531653      -1.50690801      -3.50563740
N        5.48227978       0.29215857       9.77193356       0.05152465    -610.46665112      -1.86436064      -0.50855995      -2.78831948
N        7.27931118       6.27770185       9.66309357       0.05178831    -610.32458467       0.76455748       1.49961535      -0.90660609
N        0.52801085      -0.08952264       9.40125179       0.00589499    -610.53485902      -3.40305784       1.41194197      -2.46781935
N       12.18727684       6.65331030       2.49096465       0.05096879    -610.50383829      -0.78429842       0.84410435       3.29698833
N        6.98855639      12.22106743       3.41615343       0.05031987    -610.41567450      -2.92621573      -0.81028465       2.82957606
C        5.87992144       6.05180645       9.92411423      -0.24468330    -609.43202823      -1.72462444      -0.84137907      -2.62292244
C       11.79383469      12.12048531       9.64802837      -0.17017564    -609.84367371      -0.37395107      -2.73423958       2.89915998
C        0.81700587       7.77408028       2.92107034      -0.16722263    -610.04803546      -1.31476919       0.43975301      -0.41955954
C        5.92468357       1.23302698       3.16982079      -0.16589689    -610.10238030       0.83029951       0.79089504       1.12419660
C        7.30411720       6.07447386       3.34758925      -0.16703151    -609.97006490       1.89723037      -0.60311535      -0.98768312
C        1.27638638      -0.22349888       3.28025460      -0.17000324    -610.09792842      -0.03249850       1.09110004      -1.09207885
C       12.70951748       5.25758982       8.79640102      -0.15949824    -609.78846111      -0.34770815       3.53785188       1.39447817
C        7.33248520      12.42320919       9.67276382      -0.16667983    -610.07426223       0.12712384      -2.41216065      -0.21657377
H       13.41269875       4.66512871       9.32035351      -0.00170224    -609.01830934       1.57976814      -1.17147048      -0.36701122
H        7.60051537      12.17601490       8.63816357      -0.00171075    -609.32905099      -0.11808736      -0.48979563       0.15402618
H       11.94871712       5.24088192       9.60577583      -0.00299594    -609.18073305      -0.51285663       0.26855456      -0.72655841
H        7.84722567      13.29996681       9.85067463      -0.00152623    -609.19132125       0.81677892       2.22904136       0.72673289
H       -0.00929158       4.96329594       7.83789587      -0.00576041    -609.11547415       0.29400275      -0.40329670       0.11455760
H        7.70567179      11.68035984      10.43173981      -0.00180774    -609.37412163      -0.60304293       0.43810656      -1.05434546
H        0.31031519       8.74648476       2.91476917      -0.00286373    -609.33813504      -0.36669316      -0.45214691       0.05482322
H        5.14755106       1.45980597       3.89335537      -0.00218518    -609.30500328       0.10523880      -0.17111522       0.46183537
H        1.57003450       7.86175728       2.17103434      -0.00335007    -609.31745703       0.90973356      -0.24887563      -0.28914421
H        5.41855574       1.00605762       2.28861952      -0.00055383    -609.29891654      -0.88072950       0.56578077      -2.10342789
H       13.45936203       7.55143690       3.93032289      -0.00435903    -609.34315880       0.29607994      -0.14676157      -0.11016607
H        6.68520117       2.08004880       3.14600968      -0.00274422    -609.36109887      -1.09109626      -1.17040872      -0.15758400
H        6.42193270      15.69145298      11.03927612      -0.00363751    -608.12306153      -0.62810465      -0.19656148       1.35216604
H        5.05154896      -0.00125073      10.64858532       0.00090140    -609.43738495      -0.16161226      -0.21153738       0.71640037
H        1.64738345       7.06240129       8.05685139       0.00192365    -609.19503449      -1.81189034      -1.61701625       0.93867710
H        5.12155342       1.27291334       9.58920383       0.00217762    -609.44439930       0.36119276      -0.37635152       0.19965163
H        0.96006089       7.25574684       9.50091362       0.00228316    -609.17161860      -0.09810103       0.82571037       2.69389385
H        4.95790339      -0.28363746       8.97002316       0.00037250    -609.49538767       1.06268408       0.99398656       1.84065798
H       12.75542545       5.85469103       2.36953950       0.00207942    -609.39137150       0.96788807      -1.51834762      -1.03612468
H        7.33854485      12.07006073       4.49899006       0.00133122    -609.40641117      -0.65074069       0.15502620      -1.98680030
H       -0.87087864       6.72746420       1.79406464       0.00137726    -609.36551511       0.32373757       0.43795065      -0.81184122
H        7.77349567      12.21011257       2.85324717       0.00133231    -609.37727704       2.47787768      -0.47314680      -1.68454743
H       11.65454388       6.35913372       3.35223126       0.00093468    -609.50453629       0.04614247       0.38214641      -0.22548127
H        6.30176497      11.43985271       3.09718204      -0.00004369    -609.41446175       1.16773181       0.75997841       0.76383529
H       -0.87057263       3.25158548      14.90881062      -0.00448598    -608.00885564      -0.30467038      -1.00764704      -1.39794502
H        7.28851557       7.04224014       8.83639240       0.00070239    -609.40438944       0.25358304      -0.98948713       0.71350683
H        7.88279009       6.68449736      10.43590546      -0.00357893    -609.42250328      -0.62391501      -0.40547319      -0.55906571
H        1.59039974      12.18494511      10.11991882      -0.00020665    -608.94642524       0.73533496      -0.66834513       0.96148188
H        0.51873529      -0.65799415       8.58303261       0.00067955    -609.11234503       2.07568284      -0.55731178      -0.49014929
H        7.64627790       5.36393738       9.34099102       0.00210896    -609.42418672       0.63651353       0.31924797      -0.11362391
H        5.09016895       6.58497143       9.31820107      -0.00409087    -609.07338781       1.29582710       0.51594621       0.56957321
H       10.55679893       0.25672731       9.12699890      -0.00135695    -609.05501440       0.44036823       0.90672214      -1.66304517
H        5.73768568       6.37259722      11.04215145       0.01252633    -609.29303495       0.39398008       0.77171538       1.65961737
H       11.55874538      12.54045105      10.63384533      -0.00175709    -609.16377183       0.08951863      -0.26255478       0.49702753
H        5.64850330       5.01171875       9.59638023      -0.00100876    -609.02680135       0.09151876       0.25835581       1.28357337
H       11.46932983      10.95732784       9.62936020       0.00039456    -609.29038678       0.36677659       1.92837418       0.42812382
H        7.59563351       6.35199308       2.26027846      -0.00112837    -609.25553575      -0.45348368      -0.46768456       1.04138224
H        1.64888501      -1.19145763       3.44251633      -0.00447418    -609.34041512       0.05233024      -1.78450507       0.15749743
H        7.36970997       4.96580172       3.52527785      -0.00218444    -609.22368013      -0.24822377       0.73366956      -0.46281752
H        2.01292920      12.62602806       4.12255096      -0.00436369    -609.34548599       0.05705384       0.87836549       0.45692296
H        8.22593784       6.39860010       3.91968608      -0.00037237    -609.12377465      -0.55359932       0.30024918       0.00014402
H        1.72150707       0.08254237       2.33330774      -0.00423837    -609.37604727      -0.18196238       0.42413855       0.03869262
H       11.95667744      12.88394451       3.09598827       0.00116217    -609.44919585       0.12934819       1.38756853      -0.33687876
H        5.46711588       5.78688669       4.21942806       0.00015942    -609.11704728       0.71184055       2.47276435      -0.87576782
H       12.22715473      11.69780445       4.17646503       0.00142019    -609.45305767      -0.28685910      -0.40584077      -0.53449059
H        5.01496410       6.14940548      -1.42738080       0.01365782    -608.60793847      -0.76813477      -0.70717596      -0.35940800
H        5.75255489       7.47416306       3.45668054       0.00199129    -609.00482960      -0.56369439      -0.04782622       0.19134812
H       11.81262684      -0.87253612       2.48640251       0.00130628    -609.42519177      -0.47879439      -0.97068001      -0.63357702
96
Lattice="12.299111366271973 0.0 0.0 0.397482693195343 12.292691230773926 0.0 0.0 0.0 12.580405235290527" Properties=species:S:1:pos:R:3:initial_charges:R:1:energies:R:1:forces:R:3 original_dataset_index=49 energy=-58460.12617314533 pbc="F F F"
Pb       9.78112888       9.11500549      12.39399624      -0.10973620    -605.29518667      -1.43959786       1.33117541       0.25424811
Pb       2.81773472       2.70957208      12.18189621      -0.14211041    -606.05541833      -0.24362433       1.12698504       1.62706323
Pb       3.84713650       8.80363464      12.66605663      -0.12351748    -605.73275387      -1.34371502       0.25880528       0.02873590
Pb       9.13730335       3.46241498      12.82022285      -0.14665951    -606.04954545      -0.23775503      -0.81988194      -0.34423576
Pb       9.69665337       9.05349159       6.29717827      -0.12809679    -605.78295986      -1.35936440      -0.71530902      -0.08986597
Pb       3.06132746       3.16204047       6.25235605      -0.14891560    -606.31428663      -0.18573074      -0.23850015      -0.35523936
Pb       9.32774162       2.71911049       6.26372194      -0.11116012    -605.50052088       0.61350028       1.17957740      -0.13599667
Pb       3.48312759       9.30730247       6.10634995      -0.12853771    -605.84198395      -0.93281719       0.29036060       1.09625701
I       10.25083733       8.59168148       9.31054020       0.11105742    -608.66239923       0.14574881      -0.05791023       0.34616907
I        3.41387343       2.69209337       9.48440933       0.08024248    -608.46085003       0.44753285       0.07386705      -1.59521352
I        9.39568996       2.93184280       3.07937884       0.08397424    -608.45219986       0.81123286      -0.51440574       1.60527888
I        4.22070456       8.93092632       3.37209249       0.11361297    -608.72664145       0.06509025       0.16057853      -1.10420039
I        2.63075995       3.79380774       2.93577290       0.07604229    -608.36706661       0.20232524      -0.48374631       0.79274654
I        9.70437813       9.72559643       3.23834896       0.10797288    -608.60535749      -0.80862485      -0.40446307      -0.67282410
I        2.65495133       9.64867783       9.91307068       0.08750300    -608.48658624      -0.49864855      -0.43389141      -0.81692970
I        9.27405548       3.04852366       9.92876530       0.08687583    -608.43088208      -0.17144264       0.37819292      -1.45841983
I       -0.15887561       2.27750540      12.57050800       0.07473662    -608.39911184       0.03331229      -0.18123165      -0.22125245
I        6.60587645       8.47305298      12.31285667       0.09037995    -608.54064554       0.57073536      -0.03170709       0.05637469
I        9.80917549       6.32377672      -0.15117680       0.08873770    -608.52991164       0.70130660      -0.64128147       0.28420165
I        4.11367655      12.32664299       0.18584241       0.09169389    -608.58966376       0.45082410      -1.16221709       0.18964798
I       12.24966335      10.07050896       6.02815723       0.08840105    -608.51057181       1.55956610       0.53394302       0.02922880
I        6.14554882       4.14056110       6.13161230       0.08355108    -608.43776011       0.32287795      -0.20586351       0.70820422
I        2.60538268       6.18743181       6.31081820       0.08492990    -608.50798698      -0.06497050       0.93064847      -0.25879839
I        7.96358156       0.29658365       6.57022715       0.09961110    -608.52913565      -0.17648309      -1.10322104      -0.22346906
I       12.36852932      10.22948456      -0.31700248       0.09873388    -608.46206506       1.40386964      -0.14318088       1.33366520
I        6.15251732       3.83678365       0.18939181       0.07560096    -608.39131083      -0.60628990       0.07344840       0.14099969
I        2.38447475       6.02536488      12.72606277       0.07320376    -608.33309255       0.28293409       0.49389709      -0.65407649
I        8.36358833       0.35958833      12.50785637       0.07746050    -608.34637806       0.17952923      -0.48650364       0.17468900
I        0.32814488       1.58397520       6.72654581       0.07069816    -608.36430783      -0.36253280       0.27159942      -0.19475147
I        6.14324570       8.46460152       6.56958103       0.07920489    -608.44847220       1.09024025      -0.25908153       0.49785172
I       10.48457813       6.02237177       6.14406538       0.07725371    -608.43586801      -0.31303420       0.34230310      -0.54762795
I        4.77855968      12.71670341       6.27042198       0.07454045    -608.40419515      -0.35207565      -0.89278673      -0.17159129
N        5.77510118       5.83275652       3.16687846       0.04989051    -610.47396688      -1.32008072       1.89894995      -1.72192092
N       11.94897652      11.88408947       2.74137855       0.05335472    -610.47578211       0.95279686      -1.46960816      -2.30501816
N        0.80942553       6.32333851       9.26346207       0.00967188    -610.52377486       3.41803279       3.52806376       0.31495217
N        5.96315813      -0.01871699       9.52721500       0.05222367    -610.49616478      -1.76017823      -1.60564608       2.40667822
N        7.83970213       6.03567076       9.01675797       0.04523448    -610.45328455       0.26438222       2.68554078      -1.56835771
N       -0.69793117      -0.24133071       9.73649788       0.05050307    -610.26956527      -1.16595536      -5.01403828      -2.05290400
N       12.67931271       6.41607618       2.79475784       0.04943417    -610.54353796       0.34943853       1.03990909      -0.73204199
N        6.75921106      11.50842190       2.57899761       0.04539482    -610.46350554       4.66757294      -0.65499512      -0.66253549
C        6.62250996       5.94283819       9.82509422      -0.17109066    -610.12143195       0.73807672       1.80758735      -0.06506358
C       10.73488522      12.23029804       9.10276222      -0.17086299    -610.05423785      -5.80341869       1.01363043      -2.46033363
C        0.55458373       7.89208364       2.57097721      -0.16700214    -610.05494930      -1.28820493       0.03213189       1.08172512
C        6.63450813       0.64864999       2.98347259      -0.16034503    -610.00076577      -3.23951656      -1.09269208       3.28422715
C        7.19580364       5.47601032       3.36866117      -0.16460891    -610.02115696      -0.21978406       1.79806240       1.71580594
C        0.55292600       0.27087253       2.84656477      -0.16514096    -610.06245461      -0.30571729       1.67309107      -0.55009153
C       12.49743080       5.12958288       9.02994251      -0.16863416    -610.00302312      -1.77877324      -3.19394888      -1.61667444
C        7.18443251      11.03641605       9.64265251      -0.16366994    -610.11155682      -0.11946632       1.49933312      -2.67607933
H       11.67221451       5.29180336       8.28698730      -0.00279348    -609.18647090       0.41244556      -0.27899692       0.68877577
H        6.54900169      10.22721958       9.79420948      -0.00358860    -609.27927013      -0.94177917      -1.62993820       0.09767995
H       13.11430073       4.31407213       8.57245445      -0.00024773    -609.22118909       0.03843589       0.30153572       0.01214736
H        7.76846123      11.01297092       8.69224834      -0.00338936    -609.39963416      -0.38576167      -0.48792342       0.67334133
H       -0.23366956       4.63987064       9.90593147      -0.00393711    -609.18888496      -0.09604024       0.27317633       0.36281266
H        7.78090239      11.25748348      10.44885826      -0.00292041    -609.23849401       1.75308120      -0.09544272       1.92467482
H       -0.23704225       8.16031837       1.87171435      -0.00221138    -609.37066249       0.14993058       0.20015049      -0.03327865
H        7.55184126       0.77824533       3.54050469      -0.00311448    -609.22930675       0.44953826      -0.41489063      -0.29710269
H        1.49234998       8.14305687       2.12057543      -0.00451134    -609.31090898       0.69038753      -0.06468686       0.06543334
H        5.78695154       0.79980820       3.81220937      -0.00100056    -609.39325249       1.52701994       0.22002192      -1.54585205
H       12.63009453       8.40099049       3.54067612      -0.00348582    -609.39161705       0.46386135      -0.17274612      -0.63457981
H        6.49720240       1.35591519       2.20799804      -0.00490864    -609.23465749      -0.06489868       0.43611499      -1.08243670
H       12.74815559       8.83941650      10.01523113      -0.00460921    -607.95341446       0.83134418       0.08243696      -0.27558720
H        5.53780460       0.22364029      10.46766281       0.00006882    -609.51290024       0.51615970      -0.02443265      -0.58585899
H        1.70301199       6.24756432       9.76445580       0.00293305    -609.17129322      -0.51883296      -0.37331163       1.17116245
H        6.55119038       0.70782053       9.23075485       0.00203870    -609.40541405       0.76068864       1.83707521      -0.86878339
H        1.31594157       6.71261406       8.43266392       0.00315258    -609.11338001      -1.38515331      -0.09762767      -0.24657526
H        5.14861727      -0.18121646       8.94399834       0.00073186    -609.46360311      -0.24076017       0.41580419      -1.00059736
H       12.59177208       6.12960911       3.73387909       0.00013393    -609.45896307      -0.28169963      -0.07829482       2.19219302
H        6.17660141      10.93834972       3.14329004       0.00068347    -609.39252081      -1.00687845      -0.39689486       1.48054721
H        1.14231253       5.81539059       2.45451355       0.00072379    -609.38205079       0.47485584      -0.23325165      -0.68878077
H        7.77718067      10.90808868       2.52924252      -0.00078199    -609.40484287      -2.24836105       1.36773288       0.33589897
H       11.81279182       6.20664644       2.34613824       0.00000805    -609.44243269      -0.85711046      -0.93150893      -0.66483269
H        6.40514708      11.37596130       1.65436506       0.00106780    -609.44468261      -0.42793572       0.46891457      -1.30105433
H       -0.44063401       0.59663010      10.09220123       0.00032284    -609.22891586       1.84248807       3.28618423       2.10662872
H        8.34093285       7.09241199       9.10445499      -0.00136518    -609.36668644      -0.98815016      -2.82774273      -0.60086604
H        8.50959110       5.31856966       9.26786232       0.00047276    -609.42321368       0.87629059      -0.60916210       0.95725549
H       -0.25837159      11.16194725      10.39458656       0.00018113    -609.30716457      -0.42144384       1.94178884      -0.00221087
H       -0.05084157      -0.62927896       9.02934933       0.00117390    -609.33521015       0.35377618       0.86486956      -0.31452464
H        7.63697720       5.70840597       8.02600670       0.00050041    -609.46814763      -0.00473059       1.10537050       0.49442108
H        5.91189909       6.72960949       9.61702442      -0.00327407    -609.35999863      -0.09065289       0.42628110      -0.39017237
H       10.22486210       0.76693571       8.31465435      -0.00213727    -609.28071069       1.45324571      -1.24862280       0.84189813
H        6.89041281       6.00013208      10.84533691      -0.00283253    -609.31806080       0.34418354       0.01254566       1.18251100
H        9.72469521      12.58435059       9.60835171      -0.00110090    -609.17148067       2.52877026      -0.61107494       0.93222876
H        6.19085979       5.04034805       9.64370441      -0.00307340    -609.28745632      -1.40227247      -2.78481251      -0.51195567
H       10.22978020      11.34365749       8.63562012      -0.00354738    -609.24194339       1.50766323       0.19967961       0.22463101
H        7.58625460       5.52719736       2.40622115      -0.00371039    -609.24261765       1.15881185       0.09394404      -1.76149534
H        0.49136394       1.38210702       2.95456719      -0.00315703    -609.39318220      -0.26295990      -0.82998648      -0.27242101
H        7.40860462       4.48224163       3.80559397      -0.00396491    -609.18321322      -0.59323042       0.81434648      -0.06944535
H        1.49419904      12.28848553       1.95273495      -0.00295871    -609.38432743       0.33221332       0.13335220      -0.26884875
H        7.57232857       6.37243748       3.96612310      -0.00218462    -609.42018101       0.23306636      -1.53848752      -0.34411099
H        1.04248714      -0.10113935       3.69477320      -0.00301318    -609.30962389       0.76975897      -0.64036893       1.39744285
H       12.13439274      10.84806156       2.85482097      -0.00018307    -609.43109805      -0.63199626       1.06727146      -0.04375139
H        5.07250309       5.41466045       3.73519588       0.00113151    -609.47601927      -0.58326166      -1.21474900       1.33700303
H       11.51656437      11.98247433       1.77852619      -0.00077990    -609.48650209       0.53635114       0.04106035       0.64442671
H        5.39747953       5.63960791       2.18592453       0.00008360    -609.50123575       0.79716072      -0.01859442       0.77479063
H        5.57219267       6.88461876       3.35232282       0.00049521    -609.43648024       0.46711092      -1.26210677      -0.43045571
H       10.81742477      -0.16847710       3.35276937       0.00124222    -609.40457642      -1.00785490       0.66042520       1.62443794
96
Lattice="12.299111366271973 0.0 0.0 0.397482693195343 12.292691230773926 0.0 0.0 0.0 12.580405235290527" Properties=species:S:1:pos:R:3:initial_charges:R:1:energies:R:1:forces:R:3 original_dataset_index=51 energy=-58460.61518003577 pbc="F F F"
Pb       9.78595543       9.11966705      12.38910961      -0.11830717    -605.49155526      -1.19072357       1.26546311       0.13621366
Pb       2.80124927       2.70142365      12.17815113      -0.14472604    -606.10885244      -0.09832730       1.05729068       1.42507927
Pb       3.85979605       8.78848743      12.66812515      -0.11431454    -605.50624758      -1.17245348       0.06272672       0.60429087
Pb       9.12772369       3.47440028      12.82877541      -0.15019606    -606.11147558      -0.29260863      -0.79296737      -0.25339516
Pb       9.69588566       9.04307747       6.29493141      -0.13527633    -605.92465356      -1.28227180      -0.63046826       0.01895171
Pb       3.05576682       3.16503096       6.24815702      -0.15173846    -606.36739299      -0.14931962      -0.19729974      -0.35341019
Pb       9.33070469       2.71199059       6.26140070      -0.11646821    -605.62421307       0.52719198       1.07966333      -0.09352713
Pb       3.48276305       9.31324577       6.10608101      -0.13056418    -605.88487283      -0.91982823       0.21363149       0.91774334
I       10.26168060       8.59289265       9.30611038       0.08905329    -608.50293660      -0.04043456      -0.10533410       0.34364999
I        3.41698360       2.69950318       9.46322250       0.07784632    -608.43590466       0.42496132       0.07828300      -1.34260638
I        9.38517761       2.93222070       3.09672070       0.08064789    -608.42523091       0.68090785      -0.46504880       1.48080310
I        4.23539829       8.93241692       3.37135696       0.10662569    -608.66574668       0.04002033       0.22751847      -1.15232899
I        2.62235022       3.79455042       2.93585801       0.07547951    -608.35969133       0.26536407      -0.48472766       0.76615391
I        9.71358013       9.71648026       3.23837805       0.10162959    -608.55509468      -0.72031542      -0.34914185      -0.63965910
I        2.64996600       9.65451813       9.92622662       0.15863319    -608.85844827       5.49811401       2.46396138      -2.60931310
I        9.28990364       3.04303122       9.93062687       0.09530707    -608.51534104      -0.13584472       0.42102276      -1.38678156
I       -0.16923419       2.27853251      12.57563782       0.08120455    -608.46812590      -0.01573336      -0.27338010      -0.36540446
I        6.61550522       8.47837830      12.31418324       0.08826433    -608.51123793       0.46063543      -0.01480388       0.08703402
I        9.79654884       6.32779121      -0.16471003       0.09093265    -608.54386820       0.71546864      -0.63941619       0.27882438
I        4.10880184      12.31618023       0.18644087       0.09056741    -608.57675758       0.41565585      -1.15769483       0.17837265
I       12.25003529      10.07489109       6.02930975       0.08679752    -608.48924819       1.48644954       0.49905338       0.00399144
I        6.14638615       4.14624977       6.14326477       0.07623494    -608.35571110       0.23536812      -0.29368850       0.69926116
I        2.61238980       6.19981146       6.30080366       0.07967378    -608.45602446      -0.07458794       0.92242016      -0.25755137
I        7.94437170       0.29534087       6.56955814       0.09341212    -608.47942261      -0.05489024      -1.00174478      -0.19782578
I       12.36846924      10.23518181      -0.33523729       0.10536121    -608.50354027       1.32632228      -0.14407806       1.35159794
I        6.14016104       3.82942390       0.18485942       0.07312275    -608.36206048      -0.57337140       0.09148275       0.14025580
I        2.38529921       6.02547169      12.73458576       0.07626256    -608.35915835       0.27041174       0.55046428      -0.61427975
I        8.36524105       0.36942461      12.51795769       0.07854775    -608.35548858       0.18472632      -0.43921794       0.12584815
I        0.33160570       1.56100035       6.73247766       0.07072616    -608.35706563      -0.35279297       0.27365023      -0.15496122
I        6.13920641       8.46830368       6.57509470       0.07701243    -608.41868198       1.09021242      -0.26044869       0.51684609
I       10.48902702       6.02440882       6.14254284       0.08012442    -608.46634570      -0.22164590       0.24705046      -0.52359118
I        4.79532385      12.72577667       6.27789450       0.07649343    -608.41666917      -0.36871894      -0.94905656      -0.14881321
N        5.76904964       5.85006189       3.13698435       0.04944630    -610.39275164      -3.04000739      -1.50394820      -1.00616369
N       11.94823170      11.93730354       2.71847367       0.05165209    -610.41329820      -0.33168696       0.85148259       1.42757920
N        0.87186641       6.31217003       9.26977539       0.00827788    -610.45523704       3.46824986       0.67780321       1.20409190
N        5.93464327      -0.04511100       9.55706787       0.04981991    -610.35565714      -0.84360812       0.81076426      -2.47035575
N        7.84212780       6.01177979       8.96115398       0.04485708    -610.42045224       3.48130529       0.12495266       2.84998724
N       -0.73142999      -0.24580641       9.72395992       0.05130590    -610.38858213       1.26873973       1.89723010       0.98581966
N       12.66832066       6.45017624       2.82456207       0.04876197    -610.42172990      -1.27227724      -1.35582474      -0.39024759
N        6.77418947      11.51933956       2.53638959       0.04890620    -610.48159621      -0.10549008      -2.73676976       0.36989311
C        6.66721582       5.93036413       9.81859970      -0.16261037    -610.03208169      -2.01543338       0.16107942      -0.79657269
C       10.70401287      12.18143559       9.08475304      -0.17406005    -610.13514519      -1.47280480      -0.36564014      -2.95028898
C        0.53760511       7.91066599       2.57316852      -0.17058676    -610.04000555       0.49156746       0.02086566      -1.10665485
C        6.57614851       0.63341528       3.01990390      -0.16412140    -610.01033496       2.24458266      -0.88234214      -1.44169734
C        7.17121410       5.52693510       3.42303658      -0.16892347    -610.01498618       0.83595034       0.82789314      -3.05262347
C        0.55998802       0.29036635       2.85253859      -0.16522865    -610.03252483       2.96501373       0.54952303       1.40768654
C       12.52025223       5.10092163       9.04718494      -0.16793820    -609.96773608      -1.28669314      -3.31477394      -0.21175749
C        7.16248608      11.07204819       9.60771084      -0.16482125    -610.12377745       1.80345918      -3.02718569       0.17327040
H       11.73789978       5.26543570       8.32151604      -0.00259723    -609.11508641      -0.72126775      -0.14433585       0.06107831
H        6.56958818      10.08524513       9.67947483      -0.00180612    -609.37427457       0.52603196       1.53199668       0.13518034
H       13.00500393       4.10138416       8.64945698      -0.00127710    -609.22678994       0.26048612       1.67516029       0.15608820
H        7.80396318      10.93495083       8.68439102      -0.00324559    -609.30257557      -0.76654645       0.49403536       0.86967763
H       -0.16482137       4.67871284      10.01671505      -0.00348626    -609.23388406      -0.21309907       0.59969072      -0.55836101
H        7.85008335      11.20243168      10.51457024      -0.00249157    -609.37083569      -0.81708750      -0.44500168      -1.13062887
H       -0.26406166       8.15280342       1.87969911      -0.00129351    -609.34398552       0.01863691       0.24557635      -0.13446192
H        7.52411127       0.64018840       3.60931277      -0.00261723    -609.35425910      -0.47279935      -0.07586497      -0.62763761
H        1.48420453       8.19486427       2.03722739      -0.00381837    -609.36628931      -0.62950607      -0.56791835       0.93707695
H        5.83425999       0.72126168       3.73045564      -0.00294187    -609.18263444      -1.99296514       1.23275658       1.20382926
H       12.63228321       8.44584751       3.46685266      -0.00401382    -609.27684772       0.21177849       0.61181840       0.99614738
H        6.68094635       1.31021595       2.14465952      -0.00532995    -609.30588657      -0.49044297      -0.17059910       0.72385468
H       13.68086529       9.08965206      10.28827477      -0.00011394    -607.75892784      -5.23721944      -2.51234918       1.37403862
H        5.62773228       0.10928511      10.51846790       0.00019508    -609.39456355      -0.58513093       0.65504193       0.22107276
H        1.74715436       6.01722431       9.77385998       0.00183075    -609.25456471      -0.70637393       0.89714437       0.19078488
H        6.57039738       0.77187902       9.19216156       0.00071718    -609.42857009      -1.63042754      -1.13575686       0.62712686
H        1.31252980       6.76867437       8.45524120       0.00178964    -609.14485148      -0.78812329      -0.38210311      -0.28202256
H        5.05526495      -0.22904213       8.85312080      -0.00013978    -609.40414075       1.99763804       1.08119856       1.44442396
H       12.47393417       6.09759140       3.83171844      -0.00061009    -609.47496088       0.52139527       0.86529277      -1.43192529
H        6.18526936      10.94632339       3.21855569       0.00044671    -609.52130418       0.56472441       0.80562033      -0.62292999
H        1.08055055       5.81280088       2.31957102       0.00039138    -609.39188894      -0.18616992       0.69612031       0.83961018
H        7.67521191      10.95591927       2.50493288      -0.00077032    -609.49534112      -0.36775530       0.64807912       0.06684696
H       11.79230022       6.28381443       2.26412320      -0.00053903    -609.48972947       0.53213823      -0.65119099       0.83221613
H        6.32152605      11.28075504       1.61414683       0.00143389    -609.50191896       0.25592927       1.15760904       0.49502519
H       -0.41031617       0.66771752      10.27138615       0.00014511    -609.45513232      -0.46036873      -1.53724296      -1.29146737
H        8.35368156       6.93708515       9.06560898      -0.00008618    -609.46512665      -0.36076337      -0.63881100      -0.40281327
H        8.57323742       5.25421572       9.45056820      -0.00088274    -609.40699339      -1.31537431       1.21103991      -1.41259992
H       -0.39653409      11.33875561      10.48097324       0.00083910    -609.41915964       0.11600059      -0.15471282      -0.08894556
H       -0.05915445      -0.55676669       9.01127434       0.00109446    -609.45070389       0.42241205       0.29088176       0.22569007
H        7.77616167       5.74792814       8.00531101       0.00048720    -609.41796332      -0.57612903      -0.28053570      -1.48453110
H        5.89988232       6.79442930       9.54951000      -0.00269253    -609.32822910       1.46197693      -1.66073993       0.58853644
H       10.30139542       0.61601728       8.25792694      -0.00243825    -609.33061777       0.74551799      -0.17992210       0.21556541
H        7.07196712       6.01916409      10.86871719      -0.00351109    -609.28540389      -0.95912530      -0.38022783      -0.98720418
H        9.94789791      12.58445358       9.69843388      -0.00315061    -609.21929138      -0.84468880      -0.08960832       1.30827430
H        6.23214722       4.91776752       9.50184441      -0.00339028    -609.36626452       0.10291322       1.23755756       1.14934121
H       10.40185261      11.21942234       8.57397270      -0.00419692    -609.38877072       0.35683948       0.87661957       0.94459766
H        7.60811806       5.43588781       2.37815213      -0.00317302    -609.38659011       0.14215681       0.63887355       1.07879564
H        0.59879512       1.40541029       2.96375704      -0.00289357    -609.26260205      -0.73170146      -0.83152083      -0.31356907
H        7.50074244       4.63632441       3.88063598      -0.00371611    -609.05873744      -0.80249218      -1.20594225       0.67699773
H        1.53986526      12.30258751       1.90050423      -0.00258782    -609.42665286      -0.55601919       0.34017619       1.41987664
H        7.56038380       6.34906197       3.99639058      -0.00269410    -609.35000447       0.45116043       0.44924695       0.05521562
H        1.11202085      -0.07999082       3.82587743      -0.00274428    -609.39887336      -1.04357237       0.28679740      -1.83610964
H       12.14055824      10.96811199       2.78743792       0.00133847    -609.35383583       0.04204686      -1.70850179      -0.18758879
H        4.98103714       5.32934999       3.62896776       0.00078829    -609.46323479       1.09131107       0.31860377       0.64473069
H       11.65397072      12.10898876       1.76987195      -0.00043946    -609.39315322      -1.06435508       0.24022375      -0.72337007
H        5.31611347       5.59836006       2.14472151       0.00021113    -609.42336381       1.89478733       0.62115725       1.23874456
H        5.65628195       6.84695625       3.34305000       0.00004954    -609.38534738      -0.60941737       0.31358629      -0.21818402
H       10.76575470      -0.27679992       3.44310760       0.00082437    -609.38777381       1.06423288       0.74070695      -0.95952939
96
Lattice="12.299111366271973 0.0 0.0 0.397482693195343 12.292691230773926 0.0 0.0 0.0 12.580405235290527" Properties=species:S:1:pos:R:3:initial_charges:R:1:energies:R:1:forces:R:3 original_dataset_index=181 energy=-58455.183500873376 pbc="F F F"
Pb      10.07434177       9.97165966      12.28613377      -0.13436365    -605.95452024      -0.30820276      -0.84248873      -0.27084000
Pb       2.56076002       2.76104951      12.23610401      -0.11745296    -605.53080125      -1.21997730      -1.28554964       0.29667567
Pb       3.75420475       8.75697041      12.49241257      -0.12867443    -605.95809990       0.31521886       0.42821542       0.27672447
Pb       8.47750092       3.48818684      13.04308033      -0.10888526    -605.34377360       1.06665202       0.28858084      -0.90902691
Pb       9.41282940       8.76586151       6.07127142      -0.15301786    -606.39867987       0.54161315      -0.23361269       0.22728008
Pb       2.81259990       3.22271371       6.03363705      -0.13936272    -606.10743928       0.28607626       0.90972674      -0.03304119
Pb       9.51965332       2.56429648       6.78804827      -0.14419502    -606.19838009      -0.69054628       0.57728706      -0.52304273
Pb       3.35849547       9.85785294       6.47329760      -0.14158300    -606.02270396       0.07376530      -1.36735595      -1.31616128
I       10.29451561       8.37782764       9.08904648       0.06580567    -608.24845938      -0.12279057       0.42298032       0.20544135
I        3.62721395       3.27796030       9.58148003       0.09348655    -608.52456522       0.00484651      -0.19366569      -1.09858360
I        9.12305641       2.75236726       3.22940302       0.12677179    -608.88003877       1.00043119       0.00164077       1.11729412
I        4.57003689       9.40986252       3.05218935       0.07117815    -608.32702959      -0.47313143       0.58720508      -0.30938419
I        2.25594401       3.35959220       2.93677020       0.06715321    -608.32889197       0.16017186      -0.01260777       0.54442509
I        9.69441795       9.19540977       2.67994285       0.08372274    -608.45939957      -0.23538053       0.26178444       0.08447133
I        3.46316695       9.58160019       9.29868603       0.08634080    -608.48949289       0.05879011      -0.16639514       1.32950704
I        9.42240524       3.22928333       9.65505695       0.09370747    -608.59185653      -0.20765673       0.40060327       0.73619914
I       -0.66134274       2.19363832      13.01607704       0.08606195    -608.50336751       0.22382263       0.19686816       0.40316268
I        6.72110415       8.46446896      12.48865604       0.11151406    -608.70119128       0.26193010      -0.43290733      -0.56625498
I       10.26580048       6.01255178      -0.14148089       0.09566785    -608.55101907      -0.38418418       0.15207127      -0.20422366
I        3.88543010      12.04045963       0.11057215       0.08224707    -608.48738618       0.42708005       0.14808057      -0.15613089
I       12.72210693       9.77316284       5.86537027       0.08450765    -608.46286085      -0.38494707       0.36606176       0.23750428
I        6.56545401       3.87087393       6.45278120       0.05756034    -608.21400153      -0.10835955      -0.28937227      -0.04435411
I        2.88637877       6.59492159       5.81698656       0.05975797    -608.19762739       0.23007245      -0.41977246       0.16412924
I        8.34512138      -0.37970558       6.13162899       0.08634902    -608.52118943       0.38418111       0.02583646       0.18372733
I       12.96014023      10.22529697       0.21642812       0.09338114    -608.54711699       0.10531734      -0.05940791      -0.13110755
I        5.40725136       3.54117513       0.21820337       0.15115939    -609.02294118       0.87132885      -0.14221787      -0.54422744
I        2.13465619       5.72362280      12.69603157       0.13553509    -608.95862260       0.80483842       1.16629635      -0.34785287
I        8.39938927       0.37242046      12.75281811       0.08554938    -608.49319830      -0.50320614      -0.20489686       0.17118645
I        0.16039009       1.91156614       6.46471453       0.08353392    -608.50076322       0.05766712      -0.25299578      -0.03570108
I        6.70372915       8.44843292       7.17317629       0.07560895    -608.34968613      -0.22952694       0.20522286      -0.15349680
I       10.55853844       5.62587500       5.96640587       0.06486849    -608.29755936      -0.24769881       0.12383077      -0.46087283
I        4.15141630      12.63688278       6.18136311       0.08949691    -608.55291198       0.78059866       0.52018229       0.09870213
N        6.08673143       6.65598297       3.96021700       0.00409222    -610.72060185      -0.19101275      -0.55971902       0.11411803
N       12.47976303      12.03693581       3.18654132       0.04693491    -610.49104159      -0.21275961       0.79264852      -1.76602274
N        0.80288577       6.72110033       8.67216301       0.00159860    -610.79774741      -0.34078242       1.80939717       3.16587986
N        5.48809052       0.24178846       9.73779583       0.05128059    -610.50018919       0.46573545       1.86060049       1.43979213
N        7.29223824       6.30040836       9.66972637       0.11149732    -609.48331666       0.06590834      -2.60445186      -2.36768838
N        0.56345654      -0.09000449       9.40470695       0.00725362    -610.62741727       2.12467846      -0.53872518       1.45204262
N       12.12348557       6.58486891       2.57660079       0.04864551    -610.47771636       0.17414959      -0.26817339      -1.94657928
N        6.95380735      12.26292038       3.39543533       0.04804162    -610.49443332       0.92194447       0.20831091      -1.53050705
C        5.92360306       6.08616638       9.35850811      -0.15790217    -610.15902106       1.31602293      -0.15786793       1.24537860
C       11.85047531      12.15042400       9.70241451      -0.16530712    -609.92155031       1.64976871       2.39942217      -0.66812748
C        0.72431046       7.68282938       2.94905043      -0.16768976    -610.11274693       1.73938417      -0.90564747       1.57205518
C        5.87226677       1.26120722       3.15052891      -0.16759780    -610.11328031       0.30736033       0.94796393      -0.50439173
C        7.30773830       6.11033583       3.38273692      -0.16422598    -609.91540872      -0.07129523       0.00428722       0.83500659
C        1.26653743      -0.18778268       3.34702253      -0.16565049    -610.12755733      -0.35684495      -1.50016237       0.46053315
C       12.72388363       5.40486097       8.78213310      -0.16732907    -609.96480248      -2.50466269      -1.75515164      -1.30442715
C        7.37642813      12.46284008       9.55979824      -0.16885875    -610.10805917      -1.40437803       1.10108379       0.02051640
H       13.46562958       4.67359066       9.02684689      -0.00015241    -608.97978811       0.96566841      -0.69000965       0.96697174
H        7.54332972      12.39836121       8.50466919      -0.00427193    -609.33313911       0.37834464      -0.07337003      -0.67915409
H       11.78065681       5.25650883       9.37827873      -0.00192372    -609.23663237       0.91388538       0.12958230      -0.00702318
H        7.80828047      13.38249207       9.97644806      -0.00158144    -609.35259471      -0.01340976      -0.25777945      -0.12676096
H        0.09884290       4.98515844       7.78009081      -0.00271068    -609.17866480       0.24826090       0.66597693       0.60644236
H        7.70060921      11.60816669      10.07430172      -0.00415557    -609.31290241       0.75239156      -1.17506338       0.61695626
H        0.09191088       8.50199509       3.24780893      -0.00290781    -609.31364436      -0.00627497       0.48353275      -0.08325069
H        5.28056955       1.50960433       4.03436613      -0.00281893    -609.36906173      -0.19072410      -0.13963591      -0.17243875
H        1.46767080       7.94476223       2.17310143      -0.00382652    -609.33979405      -0.67705069      -0.17230766       0.20980757
H        5.25478506       1.26694822       2.21813202      -0.00379152    -609.38133144       0.46323749      -0.32632650       0.74371343
H       13.59405041       7.29827213       3.87643361      -0.00315018    -609.40113862      -0.63073698       0.67679197      -1.23748947
H        6.67385149       2.03508472       3.09253430      -0.00111290    -609.35707199      -0.76954780      -0.38121123      -0.10519543
H        6.24976492      14.90319824      11.24192333      -0.00231579    -608.13723803      -0.23130924       0.55665275       0.79449793
H        5.15182686       0.04805172      10.71798897       0.00144959    -609.48189687       0.32262707       0.17432176      -0.18251535
H        1.23544323       7.06316805       7.87319565       0.00027170    -609.11343548       1.02727159       0.62114097      -1.65189170
H        5.15952253       1.23528910       9.52054119       0.00252292    -609.46026809      -0.13425854      -1.00302730      -0.00312848
H        0.87038785       7.32166100       9.53082085       0.00178183    -609.20891999      -0.05649224      -0.91960437      -1.37900578
H        4.98957014      -0.43137398       9.20710182       0.00079568    -609.43216698      -0.79383945      -0.95153217      -1.25300834
H       12.59775829       5.73872852       2.17545724       0.00160884    -609.46906909      -0.15047004       0.31873445       1.00463481
H        7.21497250      12.20473862       4.37660074       0.00062435    -609.43448299       0.07600613      -0.31649656       1.05757635
H       -0.81060451       6.83872795       1.78705966       0.00114369    -609.46031422      -0.06841358       0.19362393       0.13746908
H        7.90291357      12.17558765       2.90520740      -0.00055753    -609.51420633      -1.44024270       0.06776249       0.11617482
H       11.50340939       6.38015127       3.35098457      -0.00046608    -609.44858722      -0.30155950      -0.66689367       0.80387589
H        6.35659504      11.46539688       3.14318538      -0.00013741    -609.47800851      -0.14367550      -0.48048073      -0.04401620
H       -1.51901209       2.53409910      14.95236397      -0.00212278    -608.13406503      -0.20363636      -0.03506818      -0.53719863
H        7.63662434       6.97591496       8.88169956      -0.00859373    -608.73690343       0.07949764       0.32356353       0.41310168
H        7.81574249       6.98149204      10.55441666       0.01104091    -608.54033522       0.08558745       1.54568101       1.37355793
H        1.48626578      11.89836502      10.24106121       0.00071523    -609.28000309      -0.02103499       0.11983507      -0.57118532
H        0.99477243      -0.59653711       8.60703850       0.00179133    -609.21969260      -1.15900748       0.21916381       0.51323694
H        8.00096035       5.45575523       9.71039772      -0.00333562    -609.06821621      -0.86449357       0.26483224      -1.59514611
H        5.50714684       6.90027714       8.87058163      -0.00437617    -608.83437366      -0.81661538       1.06357561      -1.00021381
H       11.09149456       0.34325409       8.83357620      -0.00072730    -609.15026940      -1.62365813       0.43160867      -0.93147921
H        7.48727369       6.18575382      10.93046474       0.00836343    -608.39815333       0.14186224       0.75001276       2.12602529
H       11.64607811      12.80772305      10.55243111      -0.00313069    -609.27942246      -0.00400917       0.03153263       0.10163143
H        5.58420610       5.09392595       9.33677483      -0.00920593    -608.82530058      -0.39696863      -1.00116817       0.20769733
H       11.39916229      11.23707485       9.84977531      -0.00244626    -609.06304779      -1.04608830      -2.62105074       0.24776891
H        7.39001703       6.36649895       2.33273911      -0.00157518    -609.21850482       0.29707851       0.38112707      -0.53422305
H        1.61590171      -1.26341534       3.28914642      -0.00519331    -609.44710626      -0.07955836       1.17314656       0.15923530
H        7.26805830       5.01858425       3.41167855      -0.00106333    -609.20866792       0.22734431      -0.24877090       0.29072217
H        1.87215102      12.56532097       4.32475424      -0.00486032    -609.37666769       0.06342407      -0.25132973      -0.35563957
H        8.24131775       6.45674849       3.93116117      -0.00323069    -609.25604616      -0.83473753      -0.41335550      -0.55488660
H        1.66948342       0.38838610       2.53913355      -0.00544017    -609.34155656       0.30787054       0.31946187      -0.44810362
H       12.04391384      12.98004627       3.08524609       0.00012947    -609.48670373       0.26341139      -0.51536564       0.43241637
H        5.34857321       6.00504541       4.28171539       0.00044428    -609.23245280       0.85313698       0.13043505      -0.06096868
H       12.07385635      11.48790836       3.93199086       0.00017962    -609.44794430      -0.45635918      -0.32846722       0.93442436
H        4.01450634       5.57641220       0.19645500      -0.00140722    -608.12221417      -1.04107623       0.23988876       0.04100103
H        5.62488127       7.31350279       3.34896755       0.00109352    -609.17810103       0.09007207       0.24404151      -0.08435493
H       11.83465195      -0.74225831       2.27982879       0.00041918    -609.48464376       0.37626029       0.12924314       0.50963233
96
Lattice="12.299111366271973 0.0 0.0 0.397482693195343 12.292691230773926 0.0 0.0 0.0 12.580405235290527" Properties=species:S:1:pos:R:3:initial_charges:R:1:energies:R:1:forces:R:3 original_dataset_index=437 energy=-58451.854144994424 pbc="F F F"
Pb       9.57377338       9.29506207      12.60603714      -0.13554481    -606.11238562       0.35297073      -0.61812928       0.16283986
Pb       2.88120270       2.96498036      12.40530300      -0.14411348    -606.20003671       0.90434226       0.85559556      -0.34034030
Pb       3.51774478       8.99936008      12.69520092      -0.14246689    -606.22768529      -0.16197795      -0.32056960      -0.65436926
Pb       8.46934891       3.19951510      12.75514793      -0.13898799    -606.09747903       0.25481751       0.81571615      -0.15206776
Pb      10.35911942       8.94987488       6.09703398      -0.12415379    -605.76426501      -0.56798219       0.17152262       0.23946701
Pb       2.93305206       3.07213306       6.31573868      -0.13880810    -606.09801674       0.01234299       0.20797113       0.25076144
Pb       9.13980293       2.73587847       6.45328569      -0.14674138    -606.20895099       0.43372558       0.13429905       0.08928525
Pb       3.19893646       9.21941662       6.26784706      -0.14507753    -606.15786495       0.22159230       0.35784524      -1.11136781
I        9.17942619       8.78524971       9.36746597       0.14267923    -608.99276707       0.45759388       0.64033204      -0.58304395
I        3.86412573       3.11892128       9.40830040       0.08351822    -608.45551688      -0.52162285      -0.09885921       0.32347298
I        9.44815445       2.87338901       3.27309704       0.09025739    -608.52704694       0.37495028      -0.05222615      -0.05060140
I        3.97631788       8.91876030       3.03427577       0.08900151    -608.54727435       0.11426468       0.35158672       0.19923173
I        2.42815542       2.97112370       3.14138985       0.11591470    -608.72983106       0.05155192      -0.16614015      -0.12751817
I        9.66343212       9.36214256       3.06994295       0.09139387    -608.57010618      -0.23743765       0.03900098      -0.25821831
I        3.94412756       9.22864723       9.34830666       0.09257264    -608.49149446      -0.12422827       0.31868173       1.48866832
I        8.81118202       3.53037977       9.65482903       0.07343933    -608.36476194       0.08566706       0.00284121      -0.01160193
I        0.08925246       1.99907827      12.77073002       0.13301702    -608.93351785      -0.48051687      -0.27074085       0.71082817
I        6.65700817       8.56283188      11.86979294       0.06212596    -608.26526206       0.04158338       0.03505433       0.41169615
I       10.58382511       6.09983969      -0.36116844       0.05773702    -608.16457588      -0.75167931       0.35057379       0.26736398
I        4.49081135      12.28399277       0.10524363       0.12354884    -608.92283950       0.31320990      -0.43029396       0.12010503
I       12.91558552      10.25289536       7.44005251       0.07130534    -608.32794754      -0.52224340      -0.36214492       0.61212724
I        6.22645760       3.46481562       6.45183945       0.08399887    -608.41623880      -0.36015883      -0.01078640      -0.58768510
I        3.37799740       6.28146839       5.68689919       0.08504757    -608.41903797      -0.42256961      -0.86825298      -0.53025835
I        9.23357773      -0.30085766       6.09169102       0.07869285    -608.35641312       0.31678098       0.01088448       0.41255837
I       12.97741699      10.12408257       0.11082867       0.06940156    -608.39369328      -0.29637648       0.08000445      -0.01872283
I        5.79749393       4.68316793       0.34854358       0.07070976    -608.36538614       0.16006707      -0.31049081       0.30387261
I        1.87896419       5.95971632      12.55780792       0.06671342    -608.29310012       0.63936512       0.07920002      -0.28178125
I        7.83583736       0.23891228      12.03376865       0.12124078    -608.83393310       0.18470670      -0.54719492      -0.13981608
I        0.00885486       2.09728503       6.83147526       0.08719535    -608.48163280       0.00623813       0.52597292      -0.13254470
I        6.93126249       9.17469406       6.19739485       0.06259772    -608.15160381       0.09783198      -0.13721723       0.17791810
I        9.39391518       5.94978857       5.97016859       0.09699050    -608.54874240       0.18279729      -0.19015752      -0.14501391
I        3.80221820      12.40549850       6.33192348       0.09118716    -608.58504513       0.39657369      -0.13266810      -0.07064913
N        6.52808142       6.75648165       3.83435154       0.00262909    -610.27445001      -1.38992173       2.75106056      -0.13460064
N       12.72627831      12.64672565       3.79985452       0.04817434    -610.47684738       0.08652063      -1.31438631      -1.41864654
N        0.06623861       6.25842381       7.69128895       0.01761125    -610.18564706       2.17134316      -0.19757160      -1.82065710
N        5.50076485      -0.39816624       9.12146091       0.04897391    -610.43364939      -0.63741729      -1.68083808      -1.14111392
N        6.89626503       6.45300770       8.57030773       0.01391690    -610.26425983       0.00997225       1.85724915      -2.39388002
N        0.51304585       0.88699228       9.99238014       0.00949505    -610.60682465      -0.55271055      -1.71014098       0.33478907
N       12.50789452       5.68714190       2.95444322       0.04832049    -610.48744734      -0.87418801      -0.78572510       0.06822175
N        7.11239624      12.32153797       4.16789341       0.00485191    -610.26679028       1.89798694      -0.30202202      -4.70109169
C        6.30046177       5.58160067       9.27721405      -0.12196514    -610.08905764      -0.02060377       0.26512843       0.29581291
C       11.76815414      12.76663399       9.86042118      -0.16284969    -609.98896990       1.87827559      -0.16470035      -1.72593965
C        0.41705191       7.13921309       3.09371090      -0.16589835    -610.04906453      -0.33479127       0.76312716       0.13055484
C        6.34047794       0.92348891       2.76888013      -0.16242492    -609.79182636       0.00023807      -1.33485032       2.27726690
C        6.62604141       5.52722311       3.68740153      -0.13059452    -610.07698224      -1.69158556      -3.65118798       0.96901009
C        0.24751110      -1.12092221       4.01028967      -0.16420981    -610.08371814       0.31700903       0.34617961       1.01818107
C       12.83728695       5.27852964       8.55660915      -0.10631764    -609.92679388      -3.68620799       2.55646559      -0.05337663
C        6.90827036      12.84682846       8.64916134      -0.17029437    -610.10411892       0.69257098      -0.15305096       0.28140614
H       15.66611004       6.00718212       8.74233246       0.00712842    -608.58335123      -0.33449701       3.65975073      -0.53501161
H        6.92600870      12.77975464       7.55706644      -0.00412355    -609.37413095       0.21042786       0.16030525       0.17213541
H       11.80750465       5.02709866       9.08374882      -0.00150518    -608.75503428       2.52773322      -0.74522049      -0.10917999
H        6.60814285      13.82285976       9.01889038      -0.00342493    -609.37291592      -0.02620431       0.27578001      -0.26620856
H        1.45200312       5.73095226       8.92585087      -0.00595725    -608.56176202       0.39054086      -1.10702246       0.94578075
H        7.86065340      12.60888290       9.12750912      -0.00288388    -609.35400241       0.17652811      -0.00379074      -0.39669843
H        0.14496461       7.37539101       4.13825083      -0.00309736    -609.37070653      -0.16819890       0.21173806      -0.29553524
H        5.26182652       0.86377972       2.81452394      -0.00255509    -609.11713097      -0.52098513      -0.50354872      -0.76942588
H       -0.18632071       7.74563503       2.34206057      -0.00543845    -609.35353347       0.89399629      -0.88645336       0.83161621
H        6.84222794       0.59542179       1.80284345      -0.00250474    -609.15404764      -0.58962989       0.26778746       1.53917221
H       13.81179714       7.28781176       3.03884459      -0.00482314    -609.37642113      -0.45697119       0.18954270      -0.34192184
H        6.46079063       1.97029436       2.97607470      -0.00291068    -609.11237438       0.77619529       0.65565408       0.06823822
H        6.37964344      12.29227924      12.73610210      -0.00041704    -608.15365405      -0.39606487       0.09719895      -0.45315352
H        5.22358227      -0.20056006      10.08518505       0.00019019    -609.47717804      -0.24268681      -0.03492041       0.28603741
H        0.79260248       6.72141743       7.10028553       0.00360510    -609.17933544      -0.00961682      -0.12535049       0.93022297
H        4.64753771      -0.21552843       8.45029545      -0.00042186    -609.41716206       0.86946795      -0.85754380       1.07864041
H       -0.63879752       6.05183220       6.99496031       0.00349004    -609.04139454      -1.22522020      -0.54710410       0.39862471
H        5.80502367      -1.46343422       9.08521938       0.00079047    -609.45499722      -0.85313516       2.21403358      -0.22510576
H       12.82490730       5.33164835       2.03090668      -0.00076615    -609.44439497       0.23010217       0.15181345      -0.10225018
H        4.50308895       8.49574375       7.39086771      -0.00673307    -607.98068658       0.56490170      -0.02580585      -0.17048610
H       -0.71309543       5.26278782       3.13520837       0.00122748    -609.49626927      -0.70272807       0.73440330      -0.46125615
H        8.11129093      12.70927906       4.43501329       0.00001636    -609.05444936      -2.03006788      -1.15559575      -0.85888435
H       13.00515079       5.21724844       3.69391370       0.00061543    -609.44571397       1.23677046      -0.45890555       0.36966999
H        7.33801651      11.36128044       3.52276611      -0.00131276    -609.06935436      -0.20489084       2.53712036       2.65714670
H        0.80643809       2.28809261      14.45390987      -0.00307649    -608.09119668      -0.22430656       0.24711573      -0.58034704
H        6.91845655       7.50283718       8.78011417       0.00337530    -609.17570440      -0.06355534      -1.62947561      -0.15429807
H        8.73216343       5.82321262      15.00925064       0.01103679    -608.91776432       0.25351398       0.24949170      -0.40275774
H        1.46874106      12.38761616       9.60195065       0.00067186    -609.22967797      -0.09801103       1.02790718       0.31670863
H        0.68647283       1.74085224       9.48531246       0.00042764    -609.16163299       0.17658875      -0.01183671      -0.49705783
H        7.21103621       6.19653988       7.56017065       0.00281729    -609.26620305      -0.28556895       0.43595118       1.73741885
H        5.90017176       5.88344145      10.24133587      -0.00424151    -609.07465500      -0.09142098      -0.17753376       0.13999212
H       11.19246101      -0.11063585       8.92827606      -0.00055470    -609.28009530       0.14554501       0.12786267       0.23124017
H       15.60715866       7.02838421      -4.04059219       0.01038690    -608.55400630       0.34364847      -4.17042638       1.05632294
H       11.21136284      13.65047169       9.69556332      -0.00311080    -609.18548776      -1.04735171       0.92191812       0.54932625
H        6.20401335       4.61259031       8.81873131      -0.00284684    -608.98462855      -0.14328337      -0.48124909       0.27622011
H       11.50285149      12.12102222      10.66135406      -0.00336115    -609.19545976      -0.52443026      -0.26874153       1.05198212
H        8.10057449       6.08512926       2.11569238       0.00702849    -608.89918352       0.41492934       0.11526832      -0.41652401
H       -0.53829288      -1.31129503       4.78489065      -0.00421374    -609.40103618       0.89184237      -0.40234572      -0.56549750
H        5.72156382       4.88415051       3.85525417      -0.00552799    -609.11607397       0.75281227       0.54010893      -0.64463335
H        1.69936824      10.97507095       4.37945461      -0.00550710    -609.39628752      -1.18650353       0.41269955      -0.27335169
H        7.61118650       5.06356525       3.59502482      -0.00423195    -608.90587196      -0.43220264      -0.07683653       0.17429572
H        0.06850187      -1.66715705       3.08946943      -0.00523629    -609.33595497      -0.09922177       0.01070304      -0.27277280
H       12.69934750      13.12230682       4.69030523      -0.00043272    -609.34854433       1.14739656       1.03894426       1.17254414
H        7.36390495       7.27715588       3.77799296       0.00134542    -609.29371356       1.53329771       1.22774741       0.02995714
H       11.75357914      12.77255058       3.59978151       0.00130615    -609.44971690      -1.32055614      -0.00494989      -0.85660423
H        9.81277561       7.29339504       9.38260555      -0.00113126    -608.13582270       0.22728233      -0.37158060       0.12368137
H        5.67032814       7.40311480       3.85896540       0.00253690    -609.13475811       0.41619342      -1.10781146       0.07012176
H       12.84853363       0.79738909       3.01021600       0.00054045    -609.41951533       0.07492520      -0.06274383       0.88133232
96
Lattice="12.299111366271973 0.0 0.0 0.397482693195343 12.292691230773926 0.0 0.0 0.0 12.580405235290527" Properties=species:S:1:pos:R:3:initial_charges:R:1:energies:R:1:forces:R:3 original_dataset_index=55 energy=-58459.989203498626 pbc="F F F"
Pb       9.79298115       9.13173771      12.37942982      -0.10268964    -605.11674366      -1.79851716       1.06337566       0.15521305
Pb       2.76789761       2.68733048      12.17339993      -0.14213993    -606.07983392       0.02587473       0.90871584       1.18168661
Pb       3.88303471       8.75818825      12.67368698      -0.12167101    -605.66241284      -1.44410188       0.49209064      -0.25712718
Pb       9.10780334       3.49688721      12.84542656      -0.14704767    -606.07185616      -0.25272333      -0.91530989      -0.28809471
Pb       9.69171715       9.02072144       6.29041195      -0.13235964    -605.85835072      -1.10355075      -0.49200897      -0.07898428
Pb       3.04415560       3.17086267       6.23901939      -0.14779174    -606.30084778      -0.12204511      -0.11628277      -0.42372723
Pb       9.33776474       2.69987583       6.25666475      -0.11443846    -605.58022500       0.41232157       0.87429014       0.05664164
Pb       3.48007989       9.32558823       6.10715723      -0.13081762    -605.88867459      -0.92133597       0.24789851       1.05656795
I       10.28323936       8.59474850       9.29830265       0.09615285    -608.57445882      -0.23763255      -0.48886475       0.42265081
I        3.42449117       2.71454525       9.41629791       0.08454224    -608.50252728       0.38208480       0.06970750      -0.91094306
I        9.36626911       2.93130589       3.13654780       0.08575377    -608.49458339       0.50957666      -0.40740055       1.23853313
I        4.26515865       8.93628788       3.36576581       0.10697148    -608.67464742      -0.01501530       0.27451759      -1.03868081
I        2.60624838       3.79421425       2.93844295       0.06816069    -608.28680438       0.16308808      -0.52820139       0.70493395
I        9.72961998       9.69697189       3.23627663       0.10960948    -608.63200274      -0.74976870      -0.12311659      -0.77228544
I        2.65966749       9.67586899       9.93999290       0.05547836    -608.16837643       0.65171978      -0.12985223      -0.66493983
I        9.32127953       3.03296137       9.92975616       0.08813291    -608.45032978      -0.02829781       0.16998087      -1.18018536
I       -0.18996520       2.27959943      12.58507919       0.08358890    -608.48302010      -0.02051859      -0.27897432      -0.17163918
I        6.63614035       8.48902321      12.31712246       0.08712742    -608.51235580       0.59680379      -0.05788766      -0.04791923
I        9.77369785       6.33369637      -0.19095342       0.09330014    -608.56036757       0.77778260      -0.55009883       0.27189055
I        4.10037851      12.29098320       0.18826047       0.09535388    -608.61922329       0.37622503      -0.89935855       0.20906630
I       12.25589371      10.08544827       6.03175402       0.08740786    -608.50133801       1.24585889       0.41950949       0.02466766
I        6.14877796       4.15672874       6.16915035       0.07607941    -608.35013099       0.09533098      -0.39699906       0.72982740
I        2.62633181       6.22792101       6.27966022       0.07651539    -608.42384051      -0.07803643       0.78254953      -0.34190123
I        7.90568399       0.28933445       6.56758213       0.08602660    -608.42747670       0.17534428      -0.84462023      -0.23023490
I       12.37292194      10.24622345      -0.36699870       0.11781297    -608.63331821       2.15570594      -1.11367987       1.23129424
I        6.11349058       3.81496763       0.17632931       0.08134501    -608.46490781      -0.51043942       0.24885591       0.18880005
I        2.38797832       6.02765131      12.74956417       0.08468664    -608.43795848      -0.12715603       0.63066504      -0.64674742
I        8.36898041       0.38736725      12.53863621       0.08526766    -608.42760566       0.27875992      -0.54059567       0.00020022
I        0.33746004       1.51541889       6.74387026       0.08012705    -608.44522101      -0.36739157       0.32521714      -0.12508175
I        6.13457966       8.47506714       6.58803368       0.07857026    -608.43577179       1.10064944      -0.22600769       0.52343622
I       10.49726772       6.02963591       6.13769436       0.08670131    -608.52519550      -0.13453127       0.21405056      -0.44395940
I        4.82755184      12.74081516       6.29259348       0.07908383    -608.43696507      -0.51103931      -0.85478239      -0.09179753
N        5.70437050       5.84951353       3.09217334       0.04683527    -610.45281412       3.20721101       2.70958566      -3.23999509
N       11.95800304      12.03869438       2.67935014       0.05236202    -610.50456568       1.31866066       0.07758520      -0.51093295
N        1.05679691       6.29030180       9.31599236       0.00707574    -610.56653904      -6.28715666      -0.07334414      -4.15856877
N        5.87430716      -0.08487361       9.59508991       0.05023493    -610.43213882      -0.63807355       2.27671109      -2.06677152
N        7.90509939       5.94304085       8.87617207       0.04454976    -610.47398471       2.63561958       3.00346533       3.16075004
N       -0.75935912      -0.21127845       9.72004700       0.05498078    -610.29358570       0.24631696      -2.61531864      -0.39829655
N       12.61245441       6.49949312       2.85375881       0.05063636    -610.49845705      -0.84252406       0.08520339      -0.15353574
N        6.77054071      11.50252151       2.46675181       0.04904699    -610.37995129       1.82183370      -0.57555492       1.77278431
C        6.72341585       5.88858032       9.77058125      -0.16705753    -610.03669731      -0.02497424       3.26655313      -1.09433640
C       10.61282158      12.09657383       9.00246620      -0.16117091    -609.91714944       2.76728602       0.11567109       0.08849248
C        0.49427727       7.95730257       2.56983781      -0.16760600    -610.09029963       0.66593627       0.22637852       0.09263966
C        6.50339937       0.57895267       3.05907321      -0.16887194    -610.07144090      -0.52035809      -0.66725034       1.93935620
C        7.15865469       5.63233757       3.45728469      -0.16776168    -610.12965816       0.25437961       1.14910357       1.36963525
C        0.62901479       0.34007981       2.89969182      -0.16095456    -610.08004770       0.10109005       0.79950845      -0.24578782
C       12.52141666       4.98109007       9.08602524      -0.16149189    -609.89126278      -0.25913582       1.97805503       1.15059847
C        7.16577339      11.05619717       9.55512714      -0.16473146    -610.08904008       0.08943470      -1.25340784      -2.65807134
H       11.61763573       5.17127132       8.45650578      -0.00313036    -609.21182028       0.90891903      -0.00447168       0.22229023
H        6.59907866      10.14044666       9.54989243      -0.00204890    -609.33730869      -0.60849895      -0.32142645       0.01202854
H       13.06116295       4.06919050       8.75211334      -0.00329432    -609.24354290      -0.02933295       0.48666458       0.04831158
H        7.82999516      10.98128319       8.63532448      -0.00337795    -609.36342285      -0.99783892       0.63881985       0.93367603
H       -0.17208639       4.89235687      10.11181641      -0.00169950    -609.22045211      -0.10259238      -0.88807208      -0.19077270
H        7.78148127      11.02246571      10.38811874      -0.00352130    -609.24605887       1.16967201       0.35860890       1.73651934
H       -0.29733753       8.23759937       1.88659585      -0.00229137    -609.35703737       0.04151653       0.21413545      -0.11706084
H        7.40266514       0.40694648       3.66769958      -0.00082169    -609.36153751      -0.42941664       0.74867937       0.54579560
H        1.48131478       8.11481857       2.09505272      -0.00347898    -609.40723421      -0.50629136      -0.18209424       0.12737233
H        5.56108427       0.93416137       3.68268085      -0.00308609    -609.39737097       1.83938113      -0.90522116      -1.31590539
H       12.74641705       8.58010960       3.47042680      -0.00317105    -609.35164387      -0.16300405      -0.30866170       0.12467492
H        6.78969717       1.21036828       2.29131293      -0.00326383    -609.18159163       0.24469349       1.69570090      -1.54041650
H       13.20837784       8.31225967      11.89016819      -0.00577933    -608.03193333      -0.14437849       0.70208532       0.33079276
H        5.58110666       0.11737938      10.56084442      -0.00046570    -609.43456449      -0.59794480      -0.13699665      -0.02475187
H        1.77938116       5.98147631       9.79406834       0.00047245    -608.97246536       4.91533938      -1.05018425       2.32217690
H        6.32201099       0.81728208       9.25312424       0.00168986    -609.52204332       0.20230830      -0.98666296       0.58336515
H        1.18866599       6.74013758       8.38467598      -0.00040851    -609.08977448       0.69673604      -0.44809700       1.17031023
H        5.05438757      -0.05485731       8.84676075       0.00047498    -609.42576342       1.02399173      -0.67169755       1.51435117
H       12.43434811       6.23584604       3.84601283      -0.00019056    -609.46651857       0.53823567       0.14158664      -0.22341651
H        6.26998520      11.06597042       3.23877430       0.00273466    -609.45352360      -0.36249254      -1.19156688      -0.24454981
H        1.04982257       5.94812536       2.36902547       0.00058955    -609.37359558       0.52144306      -0.27314823       0.57785138
H        7.81408739      10.98567486       2.42425156      -0.00160203    -609.31740015      -2.50547736       1.07715111      -0.20241267
H       11.77626705       6.19986343       2.34619856       0.00042093    -609.49506599      -0.38420867      -0.11830127      -0.00711355
H        6.21883249      11.49352169       1.62017560       0.00073845    -609.34747040      -0.24397987      -0.20903413      -0.73037294
H       -0.49730882       0.57266760      10.19387245       0.00255118    -609.34706837       0.43782710       4.12991529       1.40051628
H        8.52498913       6.94260120       8.93150711      -0.00040849    -609.44870931      -1.61810004      -2.20329704       0.06996472
H        8.53101730       5.25832653       9.36638641       0.00036986    -609.42704763       0.31162884      -0.18180916      -0.94301305
H       -0.53130597      11.48742771      10.58138752      -0.00037956    -609.31457210       0.99786034      -0.36458527      -1.38621130
H        0.06803635      -0.37792036       9.12394524       0.00166226    -609.36259920      -0.22682638      -0.89629005       0.17550488
H        7.83077192       5.75747347       7.91796684       0.00064959    -609.39264669      -0.73755036      -0.78549306      -2.09649960
H        6.02362442       6.73989010       9.51788807      -0.00283022    -609.37558897       0.61841468      -0.82026746       0.41546079
H       10.56437206       0.44274217       8.10416603      -0.00445714    -609.18550816      -1.83847554      -0.34302393       1.25090292
H        7.11619568       5.93978977      10.76844692      -0.00312008    -609.32620460      -0.03887889       0.19625058       0.57941964
H       10.08576012      12.44146824       9.97151279      -0.00439578    -609.14413495      -1.03960058      -0.34727694      -2.41009575
H        6.26599264       4.98461866       9.63086605      -0.00353162    -609.25944354      -1.35366203      -2.42890084      -0.42960960
H       10.65325928      11.00032043       8.67996788      -0.00521227    -609.19411337      -1.23839181       1.47180667       0.32658062
H        7.72458792       5.49468660       2.58145022      -0.00378287    -609.31034196       0.62188578      -0.03752685      -1.33080821
H        0.54940009       1.47037935       2.90862036      -0.00326222    -609.40183736       0.07605951      -1.22564604       0.25277594
H        7.26595163       4.75712872       4.08841515      -0.00285209    -609.27987495      -0.16247212      -0.13825567      -0.17495488
H        1.61545956      12.34462070       2.00136733      -0.00266945    -609.41186057      -0.11002948       0.17564763       0.55669342
H        7.63285542       6.47825670       4.04997587      -0.00231047    -609.43471736      -0.95619433      -0.62830231      -0.67393261
H        1.07544303      -0.08113517       3.82020354      -0.00338672    -609.37866544      -0.27394074       0.27374193      -0.29205309
H       12.06999207      11.03464317       2.55815125       0.00121406    -609.42878376      -0.20014760      -0.42203566      -0.01821069
H        5.12923145       5.31279182       3.66392350      -0.00036472    -609.35379023      -1.79979873      -1.48760926       1.23132531
H       11.58864021      12.39316082       1.78817689       0.00001772    -609.46801746      -0.36368596       0.31377750      -0.09684023
H        5.64786196       5.60774279       1.98818624      -0.00094835    -609.39044896      -0.48197918       0.13544738       2.40734562
H        5.52299833       6.90150023       3.25726366       0.00037137    -609.40840608      -0.37534977      -1.42395658      -0.36625931
H       10.88159180      -0.14894219       3.42017293       0.00067050    -609.43526814      -0.33594466       0.40956464       0.57013260
96
Lattice="12.299111366271973 0.0 0.0 0.397482693195343 12.292691230773926 0.0 0.0 0.0 12.580405235290527" Properties=species:S:1:pos:R:3:initial_charges:R:1:energies:R:1:forces:R:3 original_dataset_index=440 energy=-58450.74075823725 pbc="F F F"
Pb       9.56919861       9.29178047      12.62743759      -0.13572918    -606.11440405       0.41510098      -0.59492061       0.00513482
Pb       2.90008545       2.96871519      12.40874004      -0.14409001    -606.20377335       0.84861985       0.78627658      -0.30589437
Pb       3.51579046       9.00571346      12.69405556      -0.14035219    -606.18494772      -0.09577808      -0.25609152      -0.69837610
Pb       8.46639729       3.18298435      12.75406075      -0.14159544    -606.15508806       0.20627273       0.75448166      -0.05414630
Pb      10.36721897       8.95817661       6.09706640      -0.11959426    -605.64232050      -0.58404323       0.17480994       0.17001375
Pb       2.93264985       3.05944943       6.31595516      -0.13756903    -606.07067213       0.05488629       0.27376862       0.36541682
Pb       9.13709164       2.73896861       6.44974899      -0.14548010    -606.19505982       0.28742045       0.11285067      -0.04050902
Pb       3.20096064       9.22260857       6.26919603      -0.13753749    -606.01043240       0.05360472       0.51060820      -1.33847996
I        9.16965294       8.78780460       9.34494209       0.12399274    -608.91158063       1.10245548      -0.73664518      -0.56290243
I        3.85715580       3.09838343       9.42235374       0.08191784    -608.42756398      -0.50943920      -0.10748770       0.23787587
I        9.45999813       2.87849116       3.27045035       0.08096442    -608.45248932       0.26941959      -0.03777119      -0.03985316
I        3.96162772       8.90808392       3.03589988       0.08108923    -608.45499498       0.00712188       0.44413632       0.12617134
I        2.39855838       2.98561215       3.14333105       0.11586334    -608.74665915       0.04666163      -0.19189476      -0.14388998
I        9.67280102       9.35202122       3.06922555       0.09519221    -608.59602486      -0.27897625       0.00322117      -0.19163563
I        3.94724178       9.23822880       9.34463024       0.08768404    -608.44968923      -0.09620950       0.18468887       1.46357127
I        8.81342888       3.52910542       9.64324570       0.07279709    -608.35850595       0.05623761      -0.02531732      -0.00874798
I        0.10955948       1.99680519      12.77558804       0.12408742    -608.85688528      -0.49571708      -0.19960892       0.99208473
I        6.67015934       8.53499985      11.86709595       0.06528331    -608.29951570      -0.02012591       0.09288761       0.40481805
I       10.59199238       6.10705471      -0.38281095       0.05729512    -608.16134911      -0.68763923       0.36427281       0.25703619
I        4.46394348      12.26226616       0.10991821       0.11799170    -608.86801713       0.51427341      -0.60574794       0.05725109
I       12.91596031      10.25156689       7.44961596       0.08049673    -608.41852547      -0.45760570      -0.44900242       0.54153030
I        6.21587610       3.48455000       6.45447540       0.08393694    -608.41705721      -0.28599769       0.02422680      -0.45558573
I        3.37173867       6.27972984       5.67616463       0.08599046    -608.38455087      -0.51416330      -0.78554102      -0.94641654
I        9.23951721      -0.30428970       6.09322596       0.07808687    -608.35689405       0.87036327      -0.05191874       0.72112245
I       12.97266197      10.12851334       0.11476081       0.07069761    -608.40663708      -0.29186010       0.05495606       0.01606203
I        5.79041147       4.70812368       0.34501433       0.07057355    -608.36422697       0.18815963      -0.34986630       0.30785169
I        1.88656545       5.95353794      12.59732723       0.06975645    -608.32568425       0.60772367       0.07994875      -0.23676987
I        7.83894634       0.23640159      12.02961063       0.11608379    -608.80211091      -0.05311325      -0.71921948       0.09900470
I        0.01675606       2.08170104       6.82292986       0.09570445    -608.54860088      -0.03135141       0.39326252      -0.39427247
I        6.94802570       9.16129017       6.17748404       0.07150863    -608.25351867       0.03041038       0.12503037       0.10835671
I        9.37330914       5.96108627       5.96043062       0.09679933    -608.54931445       0.29551589      -0.19702137      -0.09842743
I        3.80153751      12.39514160       6.32710743       0.08967993    -608.56036845       0.36424474      -0.17798996      -0.17082134
N        6.52255535       6.81980705       3.81367779       0.00354802    -610.29031056      -0.26891458      -1.11133018       0.07615777
N       12.77841663      12.67235756       3.81445909       0.04993042    -610.27254184      -3.20046025      -0.29215378       0.56468915
N        0.13038322       6.36991549       7.70907736       0.01426063    -610.17666711      -1.52530063      -2.49129410       0.13638668
N        5.50238991      -0.37195304       9.09842491       0.04971443    -610.52551389      -0.24379733       1.68209371       1.03118725
N        6.92372370       6.43409348       8.55287170       0.01295917    -610.23592060      -0.52892412       0.85804705       0.25865734
N        0.52931660       0.86283201       9.92977428       0.00952605    -610.59271907      -2.36773647      -0.24378024       0.89517790
N       12.49661732       5.70464420       2.97166681       0.04894210    -610.45510613       1.07577240       0.75091294       1.07371412
N        7.17163229      12.40137291       4.12750769       0.00398242    -610.45351773      -0.02821213       1.20916943       0.38006199
C        6.23992014       5.69505692       9.29441166      -0.11720519    -610.08079724      -1.01961058      -2.40187183       1.38989687
C       11.74063396      12.80474758       9.86512661      -0.15903425    -609.94396775       0.16504326       0.28770869       1.88821408
C        0.40960896       7.22337389       3.11866403      -0.16679631    -610.13431121      -0.54605996      -1.91108290      -0.03131442
C        6.34617138       0.95714957       2.84010243      -0.15914994    -609.44506325      -1.71068612      -2.33805947       2.96341169
C        6.57385921       5.54319096       3.72283030      -0.12694272    -610.24089559       2.04720297      -0.50781662      -0.33091628
C        0.17202412      -1.10329247       4.01336718      -0.17452107    -610.03175650       1.22442526       0.57396632       1.65718094
C       12.82285404       5.28120756       8.52030468      -0.10661221    -609.96362081       2.87656825       4.74305810       1.72555245
C        6.94593954      12.86713886       8.63214016      -0.16695446    -610.09000105      -0.09340355      -0.31433476      -0.53157759
H       16.24967957       6.66723824       8.49545860       0.00856603    -608.77891793      -3.00843626      -0.68569889      -0.71328297
H        6.96458673      12.78564072       7.54091644      -0.00403351    -609.40812200       0.00911065       0.09288151       0.03540539
H       12.12125206       5.03060532       9.34808636      -0.00102765    -608.62778581      -0.11786773      -0.50574997      -0.83761487
H        6.61156034      13.86215305       8.91892052      -0.00419410    -609.36782555       0.25156075       0.10207698       0.09632778
H        1.49148142       5.80170631       9.00011826      -0.00420131    -608.75893643      -1.33035980      -2.25294101      -0.55805437
H        7.92763710      12.60128593       9.02996254      -0.00370900    -609.35762813      -0.18357164       0.05297557       0.14369570
H        0.10437912       7.40447187       4.13732719      -0.00322680    -609.38810633       0.08291691       0.52400959       0.46239205
H        5.24623156       0.62695754       2.96999216      -0.00255341    -609.06755383       1.22638775       0.83938402      -0.91195808
H       -0.26598564       7.66513491       2.42645097      -0.00457827    -609.33921285      -0.35481379       0.69113032      -0.65126327
H        6.74915409       0.43988746       1.98291564      -0.00446771    -608.99448086       0.27042181       0.41729240      -0.55217440
H       13.74736309       7.43134165       2.91448569      -0.00477311    -609.37073504       0.35390503       0.20982807       0.03764925
H        6.29576492       2.09055424       2.79388952      -0.00476940    -609.07131282       0.82690967      -1.19805568       0.57318482
H        6.43324280      12.03861904      12.78537273      -0.00256181    -608.12196740      -0.35409191       0.43858779      -0.55476373
H        5.22824383      -0.20704232      10.09562778       0.00004250    -609.47906885       0.41379651      -0.55217156      -0.41491707
H        0.79951286       6.96179867       7.21166134       0.00102226    -609.05067118       0.06707258      -0.50627569       0.07382841
H        4.63513708      -0.23034522       8.58389854       0.00063746    -609.43453575      -0.70951640       0.58742151      -0.60417812
H       -0.70068192       6.05473328       7.18142891       0.00303478    -609.03034870       0.06659888       1.00076827      -0.28375284
H        5.66236687      -1.32651317       8.87840271       0.00114935    -609.41111109       0.70310413      -1.74101310       0.19850835
H       12.91130543       5.39180374       2.05420780      -0.00089128    -609.43096923      -0.46238314       0.10494166       0.15992761
H        4.45873833       8.52720928       7.45540953      -0.00873778    -607.99102491       0.68299105      -0.39159377       0.24489216
H       -0.79144138       5.43883133       3.11752820      -0.00034501    -609.45756672       0.31161435      -0.15144173      -0.25973627
H        7.98739910      12.08550930       4.72561359       0.00846588    -608.97307686       0.18950648       2.64099069      -1.36768141
H       13.10083866       5.31024170       3.73388958      -0.00055973    -609.49501911      -0.65670192      -0.27685882      -0.64520895
H        7.00088644      11.42538071       4.02081633       0.00326283    -609.09054430      -1.76055247      -1.24961107      -1.34452347
H        0.85191435       2.23107886      14.55400562      -0.00475211    -608.09080347      -0.09409976       0.31245843      -0.81891772
H        6.97016716       7.40024662       8.77166080       0.00584621    -609.18530888       0.35420377       1.51560721      -0.09575016
H        8.81949043       5.92154551      14.89943695       0.01232933    -608.94815036       0.04508533       0.21904588      -0.15451957
H        1.38123775      12.42629814       9.41157913       0.00059666    -609.16533199       0.73006383      -0.02100374      -0.46398602
H        0.64859855       1.78286076       9.53772926       0.00082525    -609.13773037       0.44539925      -0.00008275      -0.57279708
H        7.35369682       6.10496807       7.71842194       0.00410113    -609.17509900       0.67290725      -0.42654684      -1.25752115
H        5.77663708       6.06587696      10.24492645      -0.00282275    -609.12981869       0.34587691      -0.19821482      -0.91966888
H       11.10220814      -0.12350307       9.01597881      -0.00211038    -609.20498430      -0.08840411       0.07685846      -0.36107941
H       15.39772320       6.46516132      -4.41551065       0.00899648    -608.69011979       3.05435467       0.45495845       1.39508802
H       11.05144215      13.71804905       9.87435150      -0.00284373    -609.28665000       1.06913492      -1.00657846      -0.01721215
H        6.17485285       4.62660551       8.96799564      -0.00266772    -609.08149949      -0.22459453       0.86924233       0.55456030
H       11.51601601      12.18275356      10.80680275      -0.00096526    -609.29053134       0.09463040       0.74754803      -1.07725271
H        8.14470005       6.14097786       2.07343984       0.00752949    -608.91814900       0.35108481       0.11850144      -0.35203640
H       -0.50529391      -1.23042297       4.82612562      -0.00219942    -609.27671823      -0.87679304      -0.93628350       0.41389033
H        5.80769968       4.86515474       4.00954628      -0.00526783    -609.09914345      -1.22313260      -0.02095946      -0.10638462
H        1.52529323      11.07528400       4.48999500      -0.00340318    -609.33562944       0.92504127      -0.67219817      -0.09682404
H        7.51632309       5.07955313       3.41878223      -0.00484686    -608.95070013      -0.23266058      -0.07657885       0.35436147
H        0.02823719      -1.75303721       3.14260435      -0.00599077    -609.31296037      -0.15683756       0.67434419      -0.14482330
H       12.98922539      13.38288021       4.68840790      -0.00096103    -609.21616904       0.63945861      -1.39023287      -1.43312405
H        7.37348032       7.41262341       3.78737903      -0.00150377    -609.12390817      -0.75208191      -0.03072350      -0.23771278
H       11.69282818      12.76031780       3.92379880      -0.00010137    -609.40937051       1.54916934       0.63333458      -1.34655432
H        9.91661453       7.24444485       9.05948353      -0.00122627    -608.17724370      -0.47974561       0.98369160       0.31263643
H        5.57175016       7.13631248       3.97595334       0.00210326    -609.15866103      -0.06254298       1.26581370       0.34732257
H       12.74097061       0.47212943       2.85250974       0.00061104    -609.29567598      -0.27549822       1.33050558       0.41854878
96
Lattice="12.299111366271973 0.0 0.0 0.397482693195343 12.292691230773926 0.0 0.0 0.0 12.580405235290527" Properties=species:S:1:pos:R:3:initial_charges:R:1:energies:R:1:forces:R:3 original_dataset_index=187 energy=-58454.25964238447 pbc="F F F"
Pb      10.08801365       9.96003723      12.27803612      -0.12018409    -605.65162658      -0.23217893      -0.30494474      -0.27158068
Pb       2.55050468       2.75119114      12.23768234      -0.13731119    -605.97588767      -1.15979566      -0.38971897       0.31604974
Pb       3.74956751       8.77611160      12.49027824      -0.11168990    -605.61095040      -1.35334859       0.17509382       0.23377010
Pb       8.48552132       3.49544477      13.03326702      -0.10689358    -605.30649793      -0.91697650       0.22921383       0.16550102
Pb       9.42733288       8.76202011       6.07343102      -0.14957654    -606.34558053       0.21438202      -0.28753184       0.25813467
Pb       2.81825662       3.24216413       6.03646946      -0.13394734    -606.00009981       0.22805533       0.84878130      -0.09218566
Pb       9.51236153       2.57401657       6.78470087      -0.13762492    -606.06334880      -0.60996035       0.49976199      -0.51666245
Pb       3.36453128       9.84190369       6.44545841      -0.13754199    -605.97719411       0.08191324      -1.20611950      -0.91385896
I       10.28216457       8.38310146       9.08274937       0.06621888    -608.28106519      -0.27691200       0.22071128       0.40044990
I        3.62349272       3.29300570       9.58404541       0.09091391    -608.52207833       0.09006612      -0.11629119      -1.21384787
I        9.13078976       2.74234176       3.24426222       0.11271761    -608.75559252       1.51997289      -0.33578048       0.93337847
I        4.56396818       9.42808342       3.04542732       0.08081218    -608.44450608      -0.32661126       0.39880801      -0.30589515
I        2.25378871       3.34456587       2.93817854       0.06996837    -608.35200988       0.12538230       0.06741970       0.76266396
I        9.69177341       9.19446468       2.67385888       0.08722789    -608.49337498      -0.20968723       0.15922854      -0.09470339
I        3.47573447       9.56338120       9.34457397       0.08888516    -608.51862125       0.07166987      -0.21265278       0.88841159
I        9.40943527       3.24231482       9.68161488       0.10792390    -608.66583449      -0.10578265       0.24483173       0.65417458
I       -0.64980209       2.18501019      13.01490021       0.07068579    -608.28946845       0.34830158       0.08111103       0.32557472
I        6.71435738       8.48587227      12.50872517       0.15288080    -609.09180827       0.12531213       0.55685122       0.27985434
I       10.27558994       5.99919558      -0.13180636       0.14164452    -608.96919790       0.76150661       1.16388857       0.17747892
I        3.89880943      12.05846691       0.09667607       0.08575856    -608.50324024       0.46052775      -0.16559440      -0.03551249
I       12.70827961       9.76321507       5.86853695       0.08762683    -608.49300311      -0.26685270       0.40072189       0.29933758
I        6.57817984       3.85423636       6.45443249       0.06799097    -608.31641782      -0.24438249      -0.09312155       0.01265240
I        2.89937353       6.56925344       5.81549549       0.06720745    -608.27650813       0.19680493      -0.36873492       0.17841339
I        8.37652016      -0.39709479       6.13233042       0.08692978    -608.52961269       0.34345420       0.04343215       0.06037612
I       12.96036530      10.21789360       0.22658189       0.09884187    -608.59049892       0.27279083      -0.12499200      -0.13885397
I        5.41358995       3.54747725       0.24079877       0.11979134    -608.83265348       1.60236257      -0.67611106      -0.65501612
I        2.06008887       5.73107624      12.68723392       0.07224671    -608.35856749       0.07623527       0.92573597      -0.42052687
I        8.38029671       0.38327840      12.76385403       0.08970079    -608.53603452      -0.46829404      -0.52963692       0.06934809
I        0.14213166       1.93544221       6.45403719       0.08554353    -608.52143022       0.08836941      -0.24598268      -0.03402044
I        6.69212627       8.44851494       7.17873764       0.04889987    -608.00079230      -0.21151843       0.98125876      -0.71134270
I       10.55020142       5.61584139       5.95346785       0.07188125    -608.37482429      -0.20077459       0.10778406      -0.40898590
I        4.15204096      12.65303230       6.17047787       0.09479793    -608.59778827       0.74524164       0.28617404       0.16216724
N        6.13222790       6.69436407       4.06123972       0.00807881    -610.56824268      -2.09463533      -2.13331322       0.41140585
N       12.46055126      12.02642250       3.15526032       0.04764945    -610.42912889      -0.10171813       0.28955361       0.35433239
N        0.79483289       6.78918028       8.67429924       0.00522395    -610.77505396      -0.80042012      -1.33782539      -2.63609703
N        5.47959661       0.20569749       9.72295856       0.05243643    -610.49593754       1.41440110       1.28816413       1.17577456
N        7.25538778       6.21120405       9.33594799       0.01556760    -610.23263627       3.94143314      -1.34069590       1.35932928
N        0.66261029      -0.08690255       9.48188305       0.00843810    -610.50508056      -1.49223136      -0.47586721      -2.40873447
N       12.05976486       6.52430105       2.63261271       0.04931840    -610.43614661       0.59589706      -1.34530584       1.16707927
N        6.92269230      12.26527786       3.36728311       0.04703657    -610.53422864      -0.06884580       0.65271831      -2.89890058
C        6.06352091       6.08551550       8.98003960      -0.12225655    -610.08602163      -3.41642832      -0.41574488       1.13280813
C       11.86718273      12.22714520       9.66287899      -0.16953804    -609.93293710       1.09759148       1.84905482       0.86867855
C        0.70632595       7.61687756       3.01917601      -0.16638257    -610.12033425       0.65306674       0.36280081      -0.24526246
C        5.82447815       1.29625642       3.14402866      -0.16351084    -610.09814026      -1.74344952      -1.33357198      -0.82226798
C        7.27091551       6.09729624       3.38114858      -0.17405289    -609.87263920       1.35154566       0.94049341       2.84298599
C        1.23995435      -0.19347025       3.37704921      -0.16419327    -610.14446276       0.98311715      -0.04961679      -0.05239157
C       12.69938850       5.38633490       8.76069450      -0.16440058    -609.91330788      -0.04335898       1.50338482       0.30599550
C        7.36231184      12.47381115       9.47208405      -0.16574131    -610.11096115       0.04289513       1.15649972       0.75471903
H       13.52090549       4.88334131       9.19817257       0.00107672    -609.05081895       1.16815630      -1.33904563       0.28912800
H        7.58348560      12.55388069       8.41915417      -0.00360188    -609.31699856      -0.18045079       0.22870287      -0.45948730
H       11.88185883       5.18892717       9.49793434      -0.00339536    -609.23219833      -0.13451136       0.32637284      -0.90479431
H        7.86101723      13.31247425      10.04495335      -0.00167916    -609.38474975      -0.65089707      -0.86965453      -0.72707632
H        0.22542977       5.08375645       7.71073866      -0.00494200    -609.20289164      -0.29231022      -0.40622486       0.75649150
H        7.77349520      11.52973557       9.80339432      -0.00366558    -609.38757149      -0.07980316      -0.34840439       0.30323810
H        0.12330410       8.49564743       3.32934284      -0.00224092    -609.32757021       0.08268459      -0.37835451       0.11718109
H        5.17434359       1.49447095       4.01578283      -0.00255608    -609.37686089       0.34867328      -0.09612450      -0.37736174
H        1.14818716       7.88195276       2.03340077      -0.00230949    -609.40038630       0.30220349      -0.05214772       0.73544676
H        5.17309475       1.18212736       2.21172237      -0.00320417    -609.42724116       0.80412259       0.11664337       1.18020549
H       13.78247166       7.32862663       3.80323768      -0.00410279    -609.33264605      -1.05088942       0.02661429      -1.01831320
H        6.53266811       2.08364296       3.00660634      -0.00251067    -609.26724276       0.48270319       0.37849947       0.02086252
H        5.96880245      14.47025013      11.42908382      -0.00577659    -608.11141629      -0.45918524       0.87408891       0.98129665
H        5.29863071       0.16566458      10.76387119       0.00273399    -609.44913380      -0.22793936      -0.15682962      -0.71584173
H        1.21366775       7.01510143       7.74503231      -0.00111649    -609.15420338      -0.17810890       0.26049091       1.40859510
H        4.99093866       1.05911696       9.39560509       0.00299788    -609.45010059       0.30658451       0.42670089       0.08530424
H        0.94738090       7.32636929       9.47278595       0.00125498    -609.09657484       0.52955123       0.93234352       1.22345604
H        5.03105450      -0.53265327       9.24470520       0.00105448    -609.40817040      -0.91593446      -1.70990077      -0.44161154
H       12.64641666       5.67555904       2.34762049       0.00031169    -609.47590659      -0.75997841       0.93708769      -0.07350310
H        7.22222185      12.14419651       4.30052948       0.00091979    -609.40633983       1.11432188       0.03017083       2.02725978
H       -0.78583390       6.90830517       1.84633863       0.00164910    -609.36976555      -0.07558125      -0.49278601       0.41428483
H        7.73568010      12.12793827       2.68875337       0.00003637    -609.50726899      -0.71925339       0.32775358       0.79420017
H       11.41860867       6.16471815       3.41275001       0.00044685    -609.49260099       0.52936499       0.72024199      -0.58888433
H        6.30798101      11.46378231       3.19761729       0.00048307    -609.49131232      -0.72260661      -0.33680655      -0.29662169
H       -1.32661283       2.25657558      15.37868881      -0.00279421    -608.04930621      -1.17818761       0.45946328      -0.62448582
H        7.84262562       7.06536388       9.57272339       0.00344886    -609.05577337      -0.78361129      -0.55030141      -1.24263185
H        8.08246422       7.71488237      12.11265659       0.00111677    -608.11841997       0.83180495      -0.70760680      -0.36006686
H        1.50777042      11.63153839      10.19167900      -0.00005178    -609.15251566      -0.26965801      -0.09564837       0.34327022
H        0.70893198      -0.68722582       8.61103725       0.00049274    -609.23480063       0.67099671       0.79674508       0.91536238
H        7.81903172       5.29005814       9.38718987       0.00351583    -609.17717761      -0.56891385       1.25432559       0.40903305
H        5.39476204       6.89960527       8.78084755      -0.00161431    -608.88591513       0.09067321       0.88570706      -0.04245984
H       10.79162407       0.18374798       8.83932209      -0.00362571    -609.26354320       0.81118058       0.57226904      -0.61681332
H        9.40843868       5.01363277      11.48443794       0.00038026    -608.05683651      -0.25870693      -0.39814679      -1.14251830
H       11.62062645      12.88677788      10.49803734      -0.00341247    -609.26771775      -0.09990091       0.15422528       0.02234111
H        5.46202230       5.21436357       9.29383659      -0.00105282    -608.89164182       0.70862398      -0.70891931      -0.98518576
H       11.50341702      11.29607487       9.89656925      -0.00171472    -609.15915947      -0.86147925      -2.80229495       0.97708695
H        7.45450163       6.45695496       2.40283608      -0.00090575    -609.16863860      -0.17336798       0.05418908      -1.47186800
H        1.82716608      -1.15238392       3.24261427      -0.00430630    -609.39016386      -1.08432340       0.72798387       0.04393410
H        7.36982727       5.01765251       3.49019361       0.00039511    -609.18615692      -0.46741163      -0.34792360      -0.49520683
H        1.79442787      12.49709988       4.39681339      -0.00352885    -609.40365029      -0.09899190      -0.31123400      -0.35602464
H        8.18087769       6.45870304       3.96189785      -0.00278433    -609.22161270      -0.26009169      -0.36085345      -0.61205442
H        1.62376368       0.56872594       2.67413807      -0.00355433    -609.40689838      -0.10259221      -0.40431283       0.16948672
H       12.13091087      13.02229404       3.30157351       0.00052912    -609.45747364      -0.11498061      -1.05919331      -0.53873123
H        5.47733164       5.90959501       4.52805233      -0.00026481    -609.17863695       1.64530319       2.16558688      -1.28294244
H       11.99566460      11.43911648       3.89078021       0.00051731    -609.46817168       0.34856469       0.05784774      -0.36084957
H        6.82497454       4.88953352       1.59256458      -0.01070264    -607.90398010       0.55737568      -0.54597593      -0.36876802
H        5.55511284       7.24935055       3.40366626       0.00164512    -609.13273054       0.31868206      -0.71598068       0.45856729
H       11.84461308      -0.65112466       2.18912292       0.00040887    -609.41090506       0.02996312       0.53629409       0.75387127
96
Lattice="12.299111366271973 0.0 0.0 0.397482693195343 12.292691230773926 0.0 0.0 0.0 12.580405235290527" Properties=species:S:1:pos:R:3:initial_charges:R:1:energies:R:1:forces:R:3 original_dataset_index=189 energy=-58454.62535468687 pbc="F F F"
Pb      10.09203720       9.95601368      12.27513313      -0.11880642    -605.62376670      -0.30470105      -0.07048175      -0.32991119
Pb       2.54563236       2.74751878      12.23872662      -0.13486364    -605.93006952      -1.33199251      -0.30388656       0.35491387
Pb       3.74669170       8.78235817      12.49003792      -0.11066442    -605.58848972      -1.34410128       0.15412435       0.36459263
Pb       8.48785877       3.49791551      13.02946949      -0.13954663    -606.03379528      -0.33928164       0.26091194       0.55708643
Pb       9.43214512       8.76039124       6.07443237      -0.14775878    -606.31377270       0.19090328      -0.32990139       0.36541655
Pb       2.82032108       3.24947333       6.03719044      -0.13347624    -605.99418505       0.20945448       0.87700785      -0.10387532
Pb       9.50928783       2.57784653       6.78311539      -0.13787420    -606.06636346      -0.65096874       0.56422355      -0.49556860
Pb       3.36659431       9.83522320       6.43549299      -0.13617501    -605.96506737       0.08633370      -1.17453378      -0.81045636
I       10.27774715       8.38512897       9.08163643       0.06132533    -608.22759790      -0.26158562       0.29953280       0.33124278
I        3.62232876       3.29754925       9.58198452       0.08914739    -608.50764450       0.15911578      -0.14607517      -1.15856975
I        9.13369751       2.73922110       3.25264072       0.10459018    -608.62604130       1.91506570      -0.75968301       1.05836338
I        4.56136513       9.43463993       3.04252672       0.07970040    -608.44074927      -0.35970846       0.37132222      -0.22808553
I        2.25346851       3.33990574       2.94010758       0.07156637    -608.36909502       0.16387424       0.07697019       0.69249958
I        9.69051933       9.19459820       2.67184591       0.09053445    -608.51902476      -0.23300560       0.09392299      -0.08155475
I        3.47980452       9.55728531       9.36102962       0.09461427    -608.57119652       0.09129545      -0.16918519       0.73593900
I        9.40501595       3.24693966       9.69111729       0.10304120    -608.62505781       0.00996341       0.16740136       0.35112960
I       -0.64557737       2.18256307      13.01500225       0.07998683    -608.38298768       0.50584394      -0.00718303       0.57916592
I        6.71386194       8.49227524      12.51442432       0.15479010    -609.08632416      -0.48702334       0.60069412      -0.41345423
I       10.27877617       5.99701357      -0.12904564       0.15217166    -609.01534904       0.10152374       1.66573329       0.30893420
I        3.90397811      12.06359577       0.09222911       0.08480637    -608.49433582       0.46702341      -0.15687328      -0.04179627
I       12.70330143       9.76093483       5.87010527       0.08981009    -608.52079645      -0.25750894       0.39982833       0.25017582
I        6.58169413       3.84865761       6.45487690       0.06738459    -608.30300457      -0.21128666      -0.21509740      -0.02606712
I        2.90392804       6.56052971       5.81546926       0.06698048    -608.27559160       0.22328720      -0.34574873       0.12796402
I        8.38704967      -0.40235263       6.13270187       0.09504025    -608.61171484       0.27355992       0.03890152      -0.01922755
I       12.96085835      10.21532154       0.22934984       0.09937805    -608.59765898       0.29325948      -0.14635537      -0.12029872
I        5.41909170       3.54978800       0.24644801       0.12079392    -608.89486570       0.30633096      -0.71938268      -0.67290887
I        2.03715611       5.73560667      12.68358231       0.07367593    -608.37213120       0.15736527       0.87314914      -0.41581550
I        8.37334061       0.38570347      12.76756096       0.08511841    -608.49800252      -0.42273150      -0.89519080      -0.00926584
I        0.13654445       1.94222522       6.45066738       0.08675516    -608.53592255       0.15450403      -0.27225076      -0.03126900
I        6.68814850       8.45038605       7.17886114       0.04973673    -607.99922782      -0.20922256       1.13345121      -0.87692868
I       10.54705811       5.61296797       5.94847870       0.07557441    -608.42121359      -0.15109712       0.12281750      -0.39717736
I        4.15378809      12.65873241       6.16738701       0.09520479    -608.60396952       0.70467387       0.19922314       0.17837517
N        6.14097500       6.68513060       4.08169746       0.00687465    -610.67523804       1.78106484       2.60501578      -1.91939531
N       12.45703602      12.02356815       3.15210271       0.05013722    -610.47696276       0.84594693      -1.32334261       1.56838068
N        0.78295892       6.82404518       8.66598415       0.00534019    -610.73832505      -1.18164284      -1.49203195       1.37001907
N        5.48641968       0.20136032       9.72131920       0.05207661    -610.45064574      -0.21893907      -2.33659118      -1.53845306
N        7.25487661       6.17189789       9.22628498       0.01691773    -610.02439879       4.90376764      -0.03036536       2.17614157
N        0.66392702      -0.08741027       9.48883820       0.00732138    -610.54145996      -0.80259411       0.34009793       0.83291467
N       12.04367065       6.49610329       2.65780663       0.05011598    -610.48039840       0.37421536       0.59779389       2.43914237
N        6.89711761      12.27478695       3.34830904       0.04676634    -610.50305970      -0.85886131      -0.89488574       1.59460989
C        6.09987307       6.08790541       8.88533211      -0.12981223    -610.04435272      -8.11502469      -0.17067756       0.35582891
C       11.88047028      12.25749969       9.66369629      -0.16428769    -609.91915941      -0.40610050      -1.74247314       0.41239469
C        0.70366126       7.60239077       3.03944659      -0.16952351    -610.14667356      -1.70247287       0.64033468      -1.84995258
C        5.80777693       1.29258263       3.14087224      -0.16558430    -610.07365441      -0.07639592      -0.63414371       0.46920345
C        7.28197575       6.11121607       3.42189455      -0.17545497    -609.82299509      -0.05502301       1.14498675      -0.42029281
C        1.23576355      -0.18772499       3.38057208      -0.16753772    -610.14777410      -0.04122331       1.13468064      -0.20416516
C       12.70634747       5.37178040       8.76025391      -0.16192406    -609.92963365       2.71075618       1.70784682       2.22458043
C        7.34400368      12.47962952       9.45074463      -0.16514984    -610.11713895       1.02451552      -1.00457598      -0.98220717
H       13.60243797       4.80476856       9.24827003       0.00003652    -609.24118270      -1.29100924       0.39081177      -0.74651754
H        7.57745171      12.57951069       8.35666656      -0.00289869    -609.32897095      -0.59395970       0.37159293       0.84669040
H       11.87541962       5.30191422       9.44823360      -0.00325867    -609.19014445      -0.57736555      -0.40649219      -0.05152803
H        7.79353666      13.27732563      10.03887653      -0.00249628    -609.33019159       0.29167609      -0.05692719      -0.13280102
H        0.22837301       5.01886225       7.77452230      -0.00559975    -609.14986334      -0.38047088      -0.47039386      -0.70904496
H        7.81744003      11.46291733       9.67505360      -0.00319999    -609.41919855      -0.84981800       1.19498225       0.25721910
H        0.10602487       8.46093273       3.37047720      -0.00262754    -609.36346886       0.31895662      -0.32242742       0.19209348
H        5.15193319       1.43088472       3.99584794      -0.00284558    -609.33673606       0.05384543       0.39756487       0.05512794
H        1.14691937       7.84906816       2.08334017      -0.00235147    -609.42235872       0.30356687       0.34402078      -0.27727403
H        5.22394991       1.18364191       2.26092029      -0.00293963    -609.32476982      -0.85602532      -0.28747594      -0.82498372
H       13.77277565       7.28947544       3.67069864      -0.00434970    -609.25514227       0.88174742      -0.70416015       1.41190090
H        6.46973324       2.13242579       2.91225219      -0.00268601    -609.31291389       0.26795417      -0.21118404       0.56044621
H        5.74156713      14.39836597      11.67614079      -0.00319847    -608.13254257       0.03922618       1.03987362       0.89774773
H        5.31537104       0.17819245      10.73059845       0.00343382    -609.42219045      -0.38315461      -0.26957828       0.35641269
H        1.21136796       7.00135899       7.78584528      -0.00107672    -609.10508837       0.85889739       0.83014711      -0.27134182
H        4.99138403       1.02621996       9.36117077       0.00248297    -609.42242154      -0.01957889       0.44954019      -0.14074790
H        1.01348388       7.32567263       9.54998207       0.00034834    -609.13101387       0.09470622      -0.63227038      -1.43702390
H        5.02778578      -0.67449623       9.23785114       0.00007224    -609.46912161       0.47952962       1.56371481       1.27112725
H       12.63053894       5.72740173       2.37894225       0.00121054    -609.45018537       0.29321882      -1.03050816      -0.59239623
H        7.34797239      12.08545017       4.32603264       0.00105279    -609.48026916      -0.36204833       0.73992545      -1.00336979
H       -0.81269425       6.85172653       1.89051974       0.00124316    -609.36318051      -0.48340707      -0.16207087      -0.18087379
H        7.60662270      12.15066147       2.67053366       0.00093554    -609.48833711       1.52183689      -0.06971942      -1.22281093
H       11.45409966       6.18093014       3.49164963       0.00026844    -609.47522102       0.27419199       0.32486186      -0.66432106
H        6.27034235      11.42607307       3.20630860       0.00039559    -609.49634297      -0.11147537       0.76934954       0.04924468
H       -1.22379708       2.21280503      15.28163147      -0.00377609    -607.99855562      -1.13674472       0.48194206      -0.75454090
H        7.69447041       7.00140953       9.63064766       0.00427186    -608.97635244       0.70424486       0.26895751      -0.82458261
H        8.16980553       7.87694979      12.67405319       0.00060297    -608.07623105       1.54516911      -0.80128241       0.24348507
H        1.48952854      11.54782486      10.16344929       0.00062870    -609.15375288      -0.44481632       0.70369223       0.37332804
H        0.75958866      -0.66373956       8.69548607       0.00191071    -609.17071292       0.42458972      -0.54788512      -1.91098549
H        7.67116785       5.26072788       9.30864620       0.00596804    -609.15422996       1.49299252      -0.62136740       0.66079693
H        5.42502213       6.97626495       8.80494595      -0.00151709    -608.95747885       0.67062558      -0.63259578       0.08635332
H       10.86927032       0.18126366       8.70757389      -0.00433215    -609.31761091       1.16861686      -0.02422738       1.38306072
H       10.09457684       4.63656425      11.60365009      -0.00029699    -608.04420841       0.20260413      -0.90833864      -1.19349546
H       11.60612011      12.87018871      10.52792645      -0.00385826    -609.16550154      -0.02897368       0.57877068      -0.37552824
H        5.56895638       5.13204861       9.14436626      -0.00004830    -608.96199373       0.31647193       0.19294011      -1.48236055
H       11.53232861      11.22196484      10.01758194      -0.00073818    -609.27367168      -0.05768825       0.73635234      -0.61131474
H        7.39219141       6.45022345       2.36274338      -0.00098243    -609.24605059      -0.25514752      -0.05840583       0.62871403
H        1.71330512      -1.13198841       3.22949290      -0.00495108    -609.34582784       0.27083610      -0.67558848      -0.25733259
H        7.30074453       5.01211357       3.43810964       0.00126452    -609.19255274      -0.24993159       0.23554592       0.17968959
H        1.78438222      12.45601559       4.39975739      -0.00382966    -609.40548930      -0.06399335      -0.16896384       0.21881038
H        8.22345924       6.40171099       3.88676071      -0.00316955    -609.14460869       0.43771095       0.04506694       0.36689679
H        1.64167881       0.62494707       2.73221040      -0.00399167    -609.44027883      -0.25127832      -0.79265177       0.11263259
H       12.15745735      12.95773888       3.32476902       0.00164741    -609.42353316      -1.19143015       1.09340940      -0.17074955
H        5.61806870       6.04810143       4.51625443       0.00127126    -609.10804109      -2.23441085      -3.24123640       2.58168261
H       11.99748135      11.37992287       3.86168814       0.00072495    -609.45785463       0.56135322       0.42345841      -0.48692745
H        7.67687559       4.54726648       1.98150384      -0.01080974    -607.89149162       0.52875940      -1.01926951      -1.92283054
H        5.46955299       7.18069792       3.50223541       0.00233784    -609.14464652       0.52189423       0.10289533      -0.31582591
H       11.87006187      -0.62364775       2.21902108       0.00088414    -609.37862086      -0.33364564       0.10654909      -0.72426911
96
Lattice="12.299111366271973 0.0 0.0 0.397482693195343 12.292691230773926 0.0 0.0 0.0 12.580405235290527" Properties=species:S:1:pos:R:3:initial_charges:R:1:energies:R:1:forces:R:3 original_dataset_index=196 energy=-58453.7335614803 pbc="F F F"
Pb      10.10470009       9.94012165      12.26156616      -0.11604145    -605.57457235      -0.42179595      -0.34750705      -1.29095574
Pb       2.52011585       2.73384523      12.24433899      -0.13753685    -605.98574740      -1.41121918       0.99714038      -0.57198553
Pb       3.73130393       8.80512238      12.49163532      -0.13105254    -606.01770303       0.04714432      -0.33747925       0.34268104
Pb       8.49689674       3.50857711      13.01210499      -0.11537053    -605.53739152       0.25118253       0.58272693      -0.83797748
Pb       9.45052719       8.75259304       6.08047915      -0.13777377    -606.11080845       0.14755360      -0.38419884       0.90066918
Pb       2.82851863       3.28020978       6.03914165      -0.13330668    -605.98616054       0.08904523       0.70414407      -0.06989799
Pb       9.49553585       2.59458947       6.77535725      -0.13703917    -606.05283221      -0.55617497       0.49642622       0.00435660
Pb       3.37486053       9.80501461       6.39556932      -0.13572790    -606.00531312       0.27969619      -1.01642157      -0.56134470
I       10.25981617       8.39529228       9.08039856       0.05819247    -608.18569702      -0.36808603       0.40510321       0.15214147
I        3.62032342       3.31261158       9.56530571       0.07757849    -608.42308738       0.22727416      -0.22451246      -0.90931731
I        9.15744877       2.71845841       3.29768109       0.10743257    -608.66906431       0.81990667       0.68959030       0.23851745
I        4.54847813       9.46089458       3.03118014       0.07786853    -608.41431022      -0.43130996       0.28739242       0.17558964
I        2.25382924       3.32371879       2.95237088       0.07360725    -608.39753598       0.04519332       0.02148733       0.59326149
I        9.68386936       9.19520473       2.66475749       0.18243727    -608.76178988       4.34496711       6.43974010       4.55652033
I        3.49534559       9.53423595       9.42558575       0.09548774    -608.59307079       0.01225594      -0.07714450       0.22615181
I        9.38933277       3.26414418       9.72888470       0.08670167    -608.50364237      -0.06080262      -0.03777284       0.29040316
I       -0.62884957       2.17657828      13.01847744       0.12838268    -608.93664383       0.76747656      -0.07593920      -1.41095425
I        6.71535492       8.51512814      12.53238869       0.06604321    -608.33543583       0.27186517      -0.12979020      -0.37777380
I       10.29075527       5.99523163      -0.11994906       0.07502694    -608.36389333      -0.41641988       0.14167833       0.27208236
I        3.92705178      12.08171082       0.07585076       0.12229405    -608.79388145       0.62939380      -0.01364012       0.12180409
I       12.68323898       9.75617313       5.87786293       0.09327584    -608.56226629      -0.26413863       0.38042352       0.14017832
I        6.59265137       3.82494211       6.45382881       0.06006205    -608.13834330      -0.00936624      -1.14591908      -1.09757425
I        2.92249560       6.52676296       5.81691647       0.07088582    -608.32400615       0.22797250      -0.21959222       0.27895338
I        8.42695045      -0.42056972       6.13319731       0.09140662    -608.59315712       0.11866375       0.08733640      -0.24435280
I       12.96537971      10.20508671       0.23789035       0.10677963    -608.67246630       0.15367530       0.07806352      -0.04026886
I        5.44338751       3.56067371       0.26762572       0.10489128    -608.75031192       0.40418185       0.01986024       0.34097363
I        1.95732999       5.75952291      12.66697216       0.06570891    -608.26978655       0.17721752       0.66884650      -0.34695097
I        8.34490013       0.38807288      12.78106403       0.09995633    -608.64938575      -0.22768456      -0.59486758      -0.04531182
I        0.11813207       1.96388924       6.43838596       0.08730893    -608.54070411       0.24478727      -0.28465921      -0.03492011
I        6.67165852       8.46713829       7.17133331       0.06043388    -608.11713893      -0.31498858       1.03536000      -0.64682619
I       10.53402805       5.60405254       5.92764568       0.08062329    -608.46770529      -0.15837745       0.14819561      -0.11671884
I        4.16568804      12.68036270       6.15806675       0.09518806    -608.60379814       0.57767757      -0.03929455       0.25769569
N        6.17539358       6.67347097       4.18710423       0.00373064    -610.69609222       0.22432144      -0.66820787       1.65395606
N       12.45089340      12.02202892       3.17127109       0.05108664    -610.48651081      -0.71737439       1.31165617      -0.94138386
N        0.71814376       6.84910107       8.64976597       0.00815895    -610.49266592       1.85019008       0.08621042      -0.41397031
N        5.47893429       0.11243551       9.69021034       0.05065657    -610.50946947      -1.01320392       2.40205341       0.03164705
N        7.33802605       6.00921917       8.96304321       0.01610057    -610.40392970      -1.48488574       0.27066901       0.75526694
N        0.65276873      -0.10547754       9.53579521       0.00485728    -610.65340707       0.93190944      -0.14581489      -0.90263876
N       12.03431225       6.42040539       2.80983734       0.05044502    -610.49262592       0.38426487      -0.54293340      -1.72035846
N        6.83067703      12.27608109       3.27072787       0.04622473    -610.44024885       0.69783975      -0.74779202       0.40823068
C        6.02433586       6.03097010       8.61485004      -0.11166510    -609.91625310       2.89054859      -0.09176784      -0.15051919
C       11.94861698      12.27765179       9.69450283      -0.16207966    -609.95771767      -1.92955618      -1.02842935      -0.14037841
C        0.67533952       7.52935886       3.03200507      -0.16822584    -610.05785534       0.61767317      -1.13953350       1.04994708
C        5.69803905       1.24853837       3.11882186      -0.17028825    -610.14229370       1.30561550       1.14314261       0.01054048
C        7.30701828       6.13946104       3.47365761      -0.16714427    -609.95678189      -0.65221600      -0.43799621      -1.10147126
C        1.21174574      -0.17717205       3.40393877      -0.16970192    -610.10371889      -0.37937439      -0.90117331       0.15031856
C       12.78760338       5.44070673       8.81984138      -0.16977811    -609.97959397      -1.55895409      -1.99885801      -0.82824846
C        7.31388474      12.48318863       9.33344460      -0.16650543    -610.08005770      -0.88005568      -0.13915272      -0.00364156
H       13.49460793       4.76641178       9.36796856      -0.00206803    -609.24366685       0.17105171       0.80041215      -0.38895723
H        7.31438637      12.88467407       8.33885670      -0.00291076    -609.33353138       0.43616119      -0.27454015      -0.74593518
H       11.83152199       5.28606653       9.35519409      -0.00263156    -609.25177560       0.12119500       0.22706338       0.04998353
H        7.84358549      13.15988731       9.96018600      -0.00359744    -609.31053212       0.16888010       0.79096245       0.73377318
H        0.25062615       4.95793962       7.83262300      -0.00360049    -609.24071116       0.48294026       0.29063408       0.59757948
H        7.72345924      11.50526142       9.48290634      -0.00355010    -609.35054002       0.50106336      -0.69212271      -0.48398244
H        0.22350802       8.26423550       3.64394140      -0.00338423    -609.26534630      -0.91957046       0.97819978       0.31375710
H        5.12136936       1.51407933       3.98270082      -0.00267051    -609.30894643      -0.38080529      -0.34155973       0.69888767
H        1.11478007       7.96585703       2.15490961      -0.00569372    -609.28738313       0.15846848      -0.26712015      -0.54738700
H        5.04183817       1.14136553       2.27072120      -0.00380927    -609.34134100      -0.06111359       0.32889927      -0.40639354
H       13.67821121       7.09084463       3.76614046      -0.00333292    -609.37226986       0.51075421       0.27772453      -0.68977350
H        6.48677826       2.04930472       3.07828307      -0.00215670    -609.38997637      -0.84370640      -0.45799219      -0.57852661
H        4.94912004      14.03300953      12.81350136      -0.00586583    -608.03605056       0.92754559      -0.24727829       0.11948761
H        5.26562405       0.18364637      10.70058727       0.00121222    -609.48539912       0.08673349      -0.12297060       0.08722071
H        1.46825659       7.06087971       7.94363499       0.00019906    -609.15713637      -0.94821292      -0.53628234       0.01507908
H        4.94359446       0.94507408       9.24682522       0.00006195    -609.51034985       0.64756296      -0.88148621       0.75729610
H        1.24567294       7.07380581       9.46612835       0.00213926    -609.21565005       0.10747136       1.04407367       1.32059451
H        4.98601675      -0.70479763       9.36360931       0.00081916    -609.46604099      -0.26223251      -1.05786195      -0.40841034
H       12.49234772       5.55698204       2.42945170       0.00233441    -609.49930548       0.13973364       0.47186819       0.00953717
H        7.46580172      12.30021191       4.17394638       0.00104708    -609.44883999      -0.73430569      -0.35251757      -1.48496612
H       -1.05571353       6.54332352       2.15107822       0.00293402    -609.45342487       0.10695051       0.22881511      -0.27152635
H        7.39600086      12.09489918       2.36389232       0.00005201    -609.45532680      -0.50130992       0.20480210       1.45484599
H       11.62936020       6.12501526       3.67592335       0.00126100    -609.42169632      -0.71818919      -0.42809041       1.68620405
H        6.12052298      11.50611782       3.36206985       0.00029638    -609.48954856       0.50430506      -0.10181873       0.01466219
H       -1.46055448       2.06011558      14.39024353      -0.00302628    -608.01986306      -0.65281140      -0.33272306       1.26026317
H        7.84788609       6.86517477       9.21156883       0.00079985    -609.19084887      -0.73327567       0.39298657       0.45286923
H        8.97505665       8.21295452      14.59438610      -0.00316594    -607.54148148      -4.76275270      -6.41443932      -4.10124885
H        1.48437643      11.67585087      10.29316616       0.00075305    -609.17330533       0.40457432      -0.22118500      -0.26327823
H        0.97523415      -0.39346841       8.56785297       0.00030864    -609.18968625      -0.53110514       0.09584749       1.77717999
H        8.03594398       5.25657034       9.11415768       0.00153665    -609.11362093      -0.82585060      -0.72137118      -0.94844705
H        5.40708685       6.86885262       8.85000610      -0.00435928    -608.84118246      -0.23928346       0.71631519       0.61796310
H       11.14335823       0.25664911       8.74019432      -0.00100284    -609.08639406      -0.40586576      -0.12520254      -1.01718591
H       12.52102280       3.02852750      11.39778709      -0.00522928    -608.06255969       0.13265880      -0.10220945      -0.08213221
H       11.64661980      13.18597889      10.24251080      -0.00110830    -609.11468423       0.00309664      -0.62774495       0.81004829
H        5.64876890       5.35112953       7.82535458      -0.00172802    -608.79961725       0.02919820      -0.29621200       1.16499181
H       11.29095554      11.25117588       9.95990086      -0.00123372    -609.21185862       1.40713154       2.10328279      -0.13314108
H        7.26561260       6.54864025       2.41291285      -0.00153807    -609.29807796       0.37914134      -0.37290305       0.96204782
H        1.62805986      -1.12402666       3.07857251      -0.00423876    -609.43834886       0.05829621      -0.46427338      -0.00064204
H        7.20508337       5.03589249       3.40904093       0.00115311    -609.18608793       0.30936240      -0.00764811      -0.17344070
H        1.78609884      12.22605324       4.45765686      -0.00511537    -609.37230870       0.15606545       0.38152281       0.41554911
H        8.28551674       6.32352686       3.93773413      -0.00315510    -609.16980810      -0.01041564       0.18738930       0.03718659
H        1.65310526       0.55613136       2.79991198      -0.00421074    -609.27918654       0.49707772       1.40150806      -0.57538394
H       11.81170464      12.84110451       3.35935593       0.00224210    -609.49568327       1.08992296      -0.48265722       0.16859828
H        5.90430689       6.12008905       5.10418653      -0.00043748    -609.07898560       0.27648058       1.38491891      -2.59007163
H       12.16066265      11.26733017       3.76179814       0.00224261    -609.42912016      -0.75244338      -1.19115211       0.89937375
H       10.40509892       4.17196655       2.48097324      -0.00787739    -608.07272354      -0.72905908      -0.37944464       0.33819505
H        5.46223354       7.01499462       3.54058242      -0.00053309    -609.09265586      -0.23657850      -0.33287944       0.88355482
H       11.90853405      -0.54465044       2.17925787       0.00224261    -609.44454271      -0.04844465      -0.10038792       0.09795628
96
Lattice="12.299111366271973 0.0 0.0 0.397482693195343 12.292691230773926 0.0 0.0 0.0 12.580405235290527" Properties=species:S:1:pos:R:3:initial_charges:R:1:energies:R:1:forces:R:3 original_dataset_index=197 energy=-58454.56154462761 pbc="F F F"
Pb      10.10623455       9.93760204      12.25887489      -0.11517242    -605.56308356      -0.50183168      -0.35032105      -1.25811370
Pb       2.51536345       2.73222351      12.24502087      -0.14634731    -606.18935475      -1.22634235       1.32361363      -0.54699419
Pb       3.72900295       8.80815887      12.49215317      -0.12720680    -605.93670302       0.06966052      -0.42927492       0.33464765
Pb       8.49858189       3.51038241      13.00870514      -0.12145074    -605.67879474       0.17287271       0.58891919      -0.63748612
Pb       9.45324039       8.75120544       6.08184719      -0.13682547    -606.09030999       0.16900922      -0.30680442       0.85778570
Pb       2.82974076       3.28510141       6.03936863      -0.13109359    -605.93966391       0.07228774       0.67088430      -0.03145940
Pb       9.49327850       2.59730887       6.77421999      -0.13798270    -606.07094395      -0.56121109       0.46026275      -0.14620338
Pb       3.37619805       9.80001354       6.38950396      -0.13292959    -605.95668241       0.26433599      -0.98462306      -0.53160717
I       10.25699043       8.39715195       9.08048916       0.06116637    -608.22542438      -0.38135647       0.36117888       0.14038547
I        3.62040043       3.31457090       9.56198502       0.07442190    -608.38746664       0.28614337      -0.14354226      -1.07720657
I        9.16133118       2.71504688       3.30581021       0.10156222    -608.57011496       0.49032898       0.18235047       0.43013599
I        4.54623652       9.46491146       3.02969074       0.07831950    -608.42189007      -0.43345230       0.25344390       0.19175462
I        2.25405622       3.32150364       2.95476317       0.07425681    -608.39746985       0.08108675       0.05892289       0.70403018
I        9.68394375       9.19709587       2.66530633       0.18110190    -609.06611170       1.54444469       2.63790010       1.64658747
I        3.49763417       9.53089237       9.43507862       0.09593351    -608.59891857      -0.01505519      -0.06325735       0.18792714
I        9.38711071       3.26654267       9.73458862       0.08904937    -608.53726672      -0.06089233       0.00295770       0.22203648
I       -0.62646788       2.17657471      13.01853848       0.12336938    -608.85242059       0.70560642       0.14521075      -1.79799823
I        6.71623516       8.51804733      12.53455639       0.06560862    -608.33410609       0.23212811      -0.12227375      -0.39227945
I       10.29211140       5.99520397      -0.11876277       0.07377291    -608.35357061      -0.38242276       0.25589353       0.21756373
I        3.93093729      12.08454514       0.07356886       0.12948854    -608.87288177       0.63743053       0.20022127       0.22155486
I       12.68005180       9.75591278       5.87914228       0.09446245    -608.57430184      -0.24140878       0.37718871       0.13160128
I        6.59415865       3.82060957       6.45283699       0.05914136    -608.11183011      -0.02486326      -1.20284963      -1.04906689
I        2.92540026       6.52175713       5.81730223       0.07530615    -608.37281053       0.19776106      -0.20986527       0.29849488
I        8.43280506      -0.42298752       6.13296461       0.08984565    -608.57729414       0.11575142       0.04083110      -0.22101583
I       12.96617699      10.20367813       0.23900332       0.10981537    -608.69588722       0.21067138       0.08898844      -0.02990132
I        5.44704676       3.56268144       0.27107164       0.09502984    -608.61673090       0.64315229       0.06474947       0.41500276
I        1.94638407       5.76371288      12.66420650       0.06652576    -608.28077505       0.19700301       0.65455387      -0.33733848
I        8.34048557       0.38780436      12.78302193       0.09952185    -608.64629377      -0.26025899      -0.69008396      -0.07230091
I        0.11573955       1.96662474       6.43660641       0.08787092    -608.54783360       0.28095286      -0.27587837      -0.03863823
I        6.66894579       8.47070312       7.16937017       0.06343073    -608.15780850      -0.36625019       1.01159087      -0.57423024
I       10.53199482       5.60299349       5.92445421       0.08254267    -608.48323673      -0.13319295       0.17394854      -0.05923837
I        4.16800880      12.68341923       6.15700197       0.09749047    -608.62271695       0.56959199      -0.07804967       0.27407878
N        6.18675947       6.67247438       4.21189737       0.00382998    -610.71289699      -0.69881600       0.14256387      -0.36971991
N       12.44337082      12.02429771       3.17181420       0.05013891    -610.44843061      -0.69918921       0.06538448      -0.66561912
N        0.72039288       6.85190868       8.65275192       0.00931683    -610.46529267       1.99339017      -0.01244426      -0.68336062
N        5.46636343       0.10047630       9.68741894       0.05086879    -610.52497403       0.40883385       2.85968566       1.06319915
N        7.32387781       5.98765850       8.93357182       0.01558424    -610.36353399       1.02994222       0.36964399       1.14857491
N        0.65519357      -0.10894344       9.54859829       0.00428938    -610.71039829       0.81048277       0.06798590       0.11732628
N       12.03025627       6.40752745       2.82804585       0.05092770    -610.44890725       0.25701190      -1.28214291      -0.76760288
N        6.82171869      12.27395439       3.25923181       0.04769740    -610.47748385       0.15970454      -0.60737416      -0.44841486
C        6.04696226       6.01715088       8.58121586      -0.11597144    -609.98085163       1.73259315       1.01863055       0.26365501
C       11.95240879      12.28450203       9.68574905      -0.16145138    -609.93686944      -1.91556747      -1.12694957       0.59376880
C        0.67256552       7.51299238       3.03479552      -0.16621250    -610.06963770       0.96887749      -0.30667516       1.49744818
C        5.68541336       1.24876821       3.11771202      -0.16909829    -610.12810963      -0.82276488       0.32477921      -0.49114111
C        7.30026817       6.13378096       3.46609139      -0.16728663    -609.94204107       0.24461658      -0.16611370       0.64544254
C        1.20732534      -0.18048473       3.40724850      -0.16834602    -610.11696211       0.46348178      -0.91819053      -0.25968165
C       12.78992748       5.44433022       8.82546711      -0.17209174    -609.98754998      -2.88633179      -1.13712504      -1.51563167
C        7.30868244      12.48179626       9.31489944      -0.16593298    -610.09398858      -0.69126171       1.22214825       1.13832771
H       13.48009205       4.86152697       9.38152313      -0.00208756    -609.16364994       1.38654851      -0.43466410       0.39158438
H        7.32005024      12.88112354       8.33845329      -0.00292774    -609.31636811       0.29698259       0.15193862      -1.30946050
H       11.83807278       5.27002478       9.40006733      -0.00277666    -609.29948754       0.33252237       0.33611793      -0.49735562
H        7.86437035      13.16944122       9.97188091      -0.00325733    -609.38275059      -0.48287818      -0.01974128      -0.02037413
H        0.30098814       4.98951149       7.80425739      -0.00382592    -609.27348764       0.32808322       0.13118793       1.08379103
H        7.72900724      11.52875423       9.41362476      -0.00358300    -609.31299647       0.73772106      -1.56781461      -0.22252659
H        0.21000604       8.26511574       3.67007852      -0.00297721    -609.29343316      -0.41833694       0.21501223      -0.25803246
H        5.10597229       1.50341010       4.01488590      -0.00261292    -609.34775874       0.06095842      -0.53300021      -0.10215065
H        1.09456480       7.97138929       2.13359308      -0.00533082    -609.29929604      -0.11161789      -0.54611549       0.04229305
H        4.99210691       1.17193854       2.22673965      -0.00337689    -609.38090121       0.91822147       0.21227227       1.00404962
H       13.71898365       7.08176041       3.78106713      -0.00304502    -609.38126224      -0.20522140       0.54594404      -1.26716971
H        6.44855928       2.01428366       3.06906271      -0.00292794    -609.34141676       0.06690667       0.46678073      -0.57234908
H        4.88285303      13.90407467      12.96286583      -0.00441049    -608.00470964       0.93891602      -0.67637329       0.05033252
H        5.28415585       0.20118219      10.71562195       0.00071925    -609.47614262       0.03509469      -0.43091999      -0.46641326
H        1.47578299       6.99167061       7.90934324      -0.00000111    -609.15396045      -1.12901812      -0.16175351       0.70669844
H        4.93461895       0.90232176       9.26442146       0.00046404    -609.50134667       0.27792421      -0.02975709       0.30925892
H        1.21885133       7.05732536       9.49751472       0.00236393    -609.22780570       0.23228577       1.20546426       0.87018048
H        5.00238800      -0.69170022       9.33757496       0.00113512    -609.42041386      -0.86830473      -2.12392310      -0.51928258
H       12.50858498       5.53170347       2.46005464       0.00222065    -609.50102128      -0.26085258       0.81648933      -0.01992772
H        7.42424488      12.29930782       4.11949587       0.00126330    -609.45508193       0.24785661      -0.12129961      -0.52254806
H       -1.07535207       6.54342461       2.18067288       0.00204315    -609.43521258       0.31642316       0.00129453      -0.02923363
H        7.35645008      12.06528950       2.34374881       0.00012059    -609.45454693      -0.31046098       0.35374618       1.40265724
H       11.66497803       6.08803177       3.73928785       0.00101926    -609.43256465      -0.48135221      -0.08364209       0.47961027
H        6.16223288      11.49263668       3.40811920       0.00060545    -609.50563899      -0.19666787      -0.34716963      -0.11773930
H       -1.49508822       1.92900121      14.33448505      -0.00297180    -608.01073991      -0.77063490      -0.51192899       1.45205897
H        7.87341595       6.86828470       9.17010498       0.00045730    -609.12261758      -1.30830051      -0.70400026       0.36979385
H        8.89100838       8.03535175      14.71071911      -0.00294272    -607.95881029      -1.87045725      -2.53856541      -1.19768077
H        1.56481087      11.69359684      10.27806854       0.00096325    -609.19896896      -0.20669577      -0.04864192      -0.22651929
H        0.97591466      -0.35924315       8.62068653       0.00077955    -609.21323146       0.00043217      -0.27117952       0.12071640
H        8.06029129       5.21456003       8.99372482       0.00125857    -609.10364555      -1.45011634       0.06175654      -0.90869348
H        5.39196253       6.80335808       8.87662125      -0.00360633    -608.86994376      -0.12898677       0.90226811       0.81161587
H       11.10214520       0.24639149       8.75793934      -0.00165142    -609.07772937      -0.20093128       0.03678092      -1.46531394
H       12.92314339       2.78848600      11.36090565      -0.00340647    -608.04201328      -0.19302519      -0.30294493       0.06325658
H       11.66765881      13.19221497      10.23199940      -0.00089591    -609.10362491      -0.13628077      -0.47697994       0.93797011
H        5.62402582       5.48663044       7.75442362      -0.00160903    -608.67783900      -0.15413431      -1.36773666       0.18079924
H       11.26613235      11.29207611       9.95226097      -0.00100897    -609.20636700       1.50426109       1.80499353       0.02511337
H        7.30310440       6.58030415       2.45355058      -0.00103709    -609.26166228       0.10636302      -0.24591581       0.12378018
H        1.65839052      -1.14130914       3.05588365      -0.00390952    -609.46630768      -0.42804198       0.39707962       0.32287900
H        7.26131248       5.02672005       3.40700841       0.00008430    -609.18409513       0.01684926       0.02991049      -0.26416703
H        1.80437469      12.22250557       4.47064400      -0.00479596    -609.37977875      -0.03388593       0.25310400      -0.02272156
H        8.28249454       6.33830261       3.97578025      -0.00251356    -609.22332525      -0.49949429      -0.04760829      -0.29730599
H        1.65489876       0.58373213       2.80725837      -0.00362265    -609.30630066       0.09247543       0.78055637      -0.13105466
H       11.81483746      12.84478474       3.40149927       0.00171433    -609.47797027       1.06477248      -0.58905956      -0.12285883
H        5.92936039       6.18143654       5.12109137       0.00004030    -609.12674291       0.21435263       0.68801758      -1.79088404
H       12.16745663      11.23583984       3.77571297       0.00236282    -609.44923189      -0.48027909      -0.30028586       0.22547610
H       10.76761723       4.20130730       2.52133346      -0.00963760    -608.02757440      -0.21394819       0.20710763       0.17001592
H        5.41602802       6.98203421       3.55504918      -0.00085186    -609.14639565       0.81107938      -0.65207550       1.63874535
H       11.92406654      -0.57160574       2.15864706       0.00169877    -609.43747827      -0.15379154       0.32467994       0.83000634
96
Lattice="12.299111366271973 0.0 0.0 0.397482693195343 12.292691230773926 0.0 0.0 0.0 12.580405235290527" Properties=species:S:1:pos:R:3:initial_charges:R:1:energies:R:1:forces:R:3 original_dataset_index=198 energy=-58454.84392702856 pbc="F F F"
Pb      10.10774422       9.93492699      12.25583267      -0.11259164    -605.51773664      -0.57206152      -0.33428045      -1.13716084
Pb       2.51014185       2.73068857      12.24561787      -0.15395710    -606.32597105       0.30480441       1.22265380       0.45912353
Pb       3.72663522       8.81120396      12.49276161      -0.12418506    -605.87190657       0.11457872      -0.56488704       0.37299941
Pb       8.50038624       3.51232553      13.00505543      -0.12527242    -605.77149539       0.22704931       0.49446610      -0.57433170
Pb       9.45608902       8.74969387       6.08340788      -0.13583225    -606.07063187       0.18516368      -0.24017054       0.78623490
Pb       2.83102107       3.29029822       6.03959846      -0.12843102    -605.88389793       0.04074291       0.62355564      -0.01330098
Pb       9.49084949       2.60021877       6.77302122      -0.13703389    -606.04945412      -0.53901518       0.38132918      -0.20571501
Pb       3.37763071       9.79465866       6.38311720      -0.12920639    -605.88779400       0.22043458      -0.95170578      -0.52179976
I       10.25397110       8.39915466       9.08063984       0.06356411    -608.26022985      -0.37234555       0.33447563       0.10904279
I        3.62058711       3.31657314       9.55829430       0.07256531    -608.36613893       0.29987167      -0.07903396      -0.98896996
I        9.16558552       2.71168780       3.31438589       0.10072862    -608.56962988       0.48164717      -0.00373989       0.37286417
I        4.54380512       9.46913052       3.02821159       0.07912850    -608.43587396      -0.42678442       0.23380991       0.22959379
I        2.25431824       3.31923676       2.95744181       0.07558046    -608.39801063       0.12092594       0.10447127       0.74800143
I        9.68445206       9.19978905       2.66636395       0.15197070    -609.06650346      -0.80319268      -0.86504053       0.16711278
I        3.50001645       9.52740097       9.44498062       0.09975488    -608.63281416      -0.01302852      -0.02255713       0.11829253
I        9.38479710       3.26902390       9.74056625       0.08983780    -608.54669480      -0.04118796       0.01933629       0.16131690
I       -0.62375081       2.17657375      13.01822376       0.11854865    -608.82014239      -0.10043357      -0.14821888      -0.50586042
I        6.71721363       8.52103806      12.53669262       0.06473754    -608.32444523       0.16888586      -0.13050110      -0.39981181
I       10.29344368       5.99528885      -0.11747447       0.07376587    -608.35575750      -0.36647656       0.29246924       0.16293315
I        3.93516159      12.08765221       0.07125900       0.13441052    -608.93921730       0.59453206       0.66771482       0.33688751
I       12.67665672       9.75574112       5.88051224       0.09685402    -608.59938220      -0.19557594       0.38112882       0.13336862
I        6.59574175       3.81576920       6.45153809       0.05913675    -608.10140889      -0.04786566      -1.25109246      -0.99348351
I        2.92848825       6.51652622       5.81776285       0.07898702    -608.41153800       0.17750768      -0.18475574       0.27392358
I        8.43892860      -0.42547879       6.13263702       0.08887292    -608.56482583       0.12368588       0.02889804      -0.21124216
I       12.96704102      10.20225048       0.24016084       0.11078636    -608.70423877       0.28082959       0.08777462      -0.02952400
I        5.45096350       3.56465387       0.27475652       0.08839515    -608.52571686       0.79003944       0.01762562       0.39861971
I        1.93511724       5.76827145      12.66123199       0.06889846    -608.31146991       0.24077439       0.45046537      -0.39790502
I        8.33581161       0.38734254      12.78505707       0.09729821    -608.62861621      -0.30878248      -0.72882961      -0.11280955
I        0.11332750       1.96938467       6.43474627       0.08834438    -608.55462841       0.33365877      -0.25622896      -0.04489647
I        6.66600513       8.47468472       7.16714525       0.06687073    -608.20500699      -0.40824264       1.00212388      -0.51302750
I       10.52983761       5.60196066       5.92112160       0.08781550    -608.53559915      -0.10418756       0.16878110      -0.06088327
I        4.17056751      12.68654823       6.15597677       0.09969808    -608.63992489       0.55618240      -0.12794687       0.29513000
N        6.19651079       6.67178822       4.23707914       0.00481296    -610.76284076       0.47885316       1.61172850      -4.31978873
N       12.43412304      12.02658653       3.17062902       0.04950621    -610.43074497       0.21981127      -2.06168021       0.35944302
N        0.72755468       6.85493135       8.65387630       0.01005618    -610.48125765       1.50628532       0.10168715       1.19753865
N        5.45442629       0.09556972       9.68723011       0.05029247    -610.51601610       0.73824357      -0.60293850       0.23698007
N        7.31104088       5.96571493       8.90534306       0.01548821    -610.32948144       2.71041789      -0.20879760       1.11054038
N        0.65921384      -0.11282916       9.56199360       0.00386475    -610.75563186       0.37515540       0.42922216       1.77859315
N       12.02690506       6.39050913       2.84505582       0.05325877    -610.41257081       0.10673956      -1.01742416       1.03108106
N        6.81265259      12.27038097       3.24601579       0.04915920    -610.53356974      -1.96042181      -0.50472225      -0.92668674
C        6.07643700       6.00663328       8.54680347      -0.11910789    -610.04997417      -1.34447240       2.29725872       0.27833720
C       11.95122910      12.28868961       9.67841625      -0.16326703    -609.90825244      -1.76066068       0.12746635      -0.25736793
C        0.67263180       7.49518538       3.04255128      -0.16539732    -610.08333175       0.43544191       0.84294044       1.33485802
C        5.66994476       1.24990737       3.11513472      -0.16917334    -610.09780021      -1.80364724      -0.43989628      -0.02096738
C        7.29421234       6.12742805       3.45993543      -0.16618718    -609.90340587       0.61240495      -0.10210432       2.41168725
C        1.20418000      -0.18687221       3.41008663      -0.16600905    -610.12206139       1.22549540       0.18406199      -0.73051433
C       12.78396225       5.44496584       8.82645607      -0.17359716    -609.99779988      -2.16372193      -0.46449484      -0.47139588
C        7.30112600      12.48393536       9.29920864      -0.16384438    -610.10176802       0.31001880       0.62521084       0.61504301
H       13.51298618       4.94457626       9.41026878      -0.00117431    -609.18152811       1.25669243      -0.74881447       0.35909044
H        7.33591938      12.88275433       8.29212379      -0.00270837    -609.35289613       0.04099437      -0.00180705      -0.25516731
H       11.85660744       5.26354694       9.43135452      -0.00306073    -609.29970333       0.12805003       0.25031834      -0.68125492
H        7.86864710      13.17733002       9.98247242      -0.00299762    -609.40419577      -0.76725371      -0.52870718      -0.51301477
H        0.36424258       5.02713060       7.81323195      -0.00408202    -609.26106682       0.01177350      -0.42242742       0.53691289
H        7.76082039      11.49696922       9.33497715      -0.00310452    -609.37455467      -0.05754208      -0.14249600      -0.04391029
H        0.18172903       8.27456284       3.68761730      -0.00254649    -609.33823467       0.19509410      -0.56408123      -0.83973549
H        5.09146452       1.47430182       4.04394865      -0.00277177    -609.37747638       0.36412031      -0.50169293      -0.65338011
H        1.06913066       7.95806074       2.11527181      -0.00482254    -609.32113714      -0.28869304      -0.59611640       0.40443253
H        4.97372103       1.21378422       2.21682239      -0.00292606    -609.36526774       0.94099497      -0.09233829       1.15713348
H       13.75448418       7.09226894       3.75014615      -0.00320817    -609.37166636      -0.29397549       0.39470372      -1.00011397
H        6.40778875       1.99549878       3.03780818      -0.00358025    -609.30379952       0.83240284       1.20692336      -0.44354775
H        4.82881021      13.76417351      13.10854721      -0.00248023    -608.00616556       0.46233848      -0.62679741      -0.22777955
H        5.30661249       0.20275162      10.71099186       0.00054283    -609.45463133      -0.08441023      -0.62011906      -0.20340965
H        1.44068432       6.91283512       7.90121078       0.00037718    -609.15028698      -0.20165056       0.45807342       0.40919045
H        4.93384552       0.85739094       9.29257202       0.00093084    -609.46970940      -0.58838668       1.28574297      -0.52277250
H        1.20020592       7.08092785       9.56105709       0.00175531    -609.23845324      -0.32692567       0.75403048      -0.98481018
H        4.99001312      -0.75351036       9.29214001       0.00065701    -609.45880257       0.16994919       0.00678022       0.64971770
H       12.52019596       5.53889608       2.49362278       0.00340964    -609.47732422      -0.16012888       0.34738275      -0.31444166
H        7.39032745      12.29294109       4.04687595       0.00198363    -609.40518630       1.83963350       0.22223837       1.41796725
H       -1.08461905       6.54886818       2.21136189       0.00202853    -609.39910047       0.36924925      -0.05989742       0.08606958
H        7.30334759      12.04625797       2.37151217       0.00073993    -609.44439207       0.53049573       0.11414132      -0.05085654
H       11.68831921       6.05239153       3.82049394       0.00179177    -609.41706709      -0.15497696       0.42807096      -1.01432756
H        6.19795895      11.46535873       3.45115972       0.00124266    -609.49736657      -0.58682970      -0.18971055      -0.29136650
H       -1.56722164       1.77430463      14.33149529      -0.00266039    -608.07112778      -0.21794323      -0.03204490       0.47041153
H        7.85443115       6.84777451       9.14774513       0.00093462    -609.04182781      -1.04357325      -0.89358471       0.55692205
H        8.73777962       7.75841522      14.78833485      -0.00493227    -608.11142305       0.66774886       1.09735883       0.23900179
H        1.64174485      11.71367168      10.25657654       0.00145355    -609.20101606      -0.74329313       0.01697358      -0.03957983
H        0.97679120      -0.33194861       8.67924786       0.00116166    -609.18702572       0.78218097      -0.65565002      -2.26148944
H        8.03295040       5.17192793       8.83373451       0.00103370    -609.09170025      -1.37686657       0.56637556      -0.58861109
H        5.37324524       6.76724148       8.93508244      -0.00270275    -608.94365592       0.73023331       0.00681150       0.39567108
H       11.05253029       0.23682864       8.72382545      -0.00254083    -609.20214649       0.60979944       0.02453485      -0.29393010
H       13.36159992       2.54334521      11.31807613      -0.00479632    -607.92670712      -1.34471261      -0.34417192      -0.99733479
H       11.68406773      13.18118763      10.25427246      -0.00097184    -609.13845183      -0.25660905      -0.28603792       0.66867343
H        5.59260416       5.57530689       7.68918991      -0.00101035    -608.62689376       0.09814059      -1.43788287       0.09610747
H       11.29330063      11.39665890       9.94681168      -0.00137625    -609.17843703       0.83167093       0.32298685       0.44664097
H        7.34335470       6.60506535       2.50304985      -0.00127656    -609.18800768      -0.22113239       0.02599521      -0.94655137
H        1.67511499      -1.14463031       3.04413152      -0.00388088    -609.45300636      -0.58823125       0.67412134       0.40261359
H        7.32141781       5.02011824       3.39384818      -0.00082415    -609.17717322      -0.26833310       0.07996754      -0.31391918
H        1.82171082      12.22770405       4.48395157      -0.00458935    -609.37499338      -0.24131389       0.09256969      -0.47038015
H        8.26215744       6.35238600       4.00395489      -0.00123251    -609.23786342      -0.50357450      -0.17928513      -0.43376003
H        1.66053104       0.64088577       2.80877042      -0.00311903    -609.36380870      -0.55620415      -0.47785243       0.62873815
H       11.85449600      12.83030987       3.43886065       0.00146388    -609.43914218       0.23967757       0.25165157      -0.13003024
H        5.96165323       6.27029085       5.07254553       0.00023637    -609.09881044      -0.60373249      -1.47354408       2.40250762
H       12.15859604      11.19491196       3.80166817       0.00238490    -609.45250676      -0.12337520       0.83176658      -0.58891371
H       11.11448288       4.20708323       2.56848574      -0.00988766    -607.99931354      -0.27212281      -0.23346057       0.07542055
H        5.39647865       6.92333126       3.62791777      -0.00033130    -609.20240501       0.49999882      -0.27762337       0.95417800
H       11.93468189      -0.58787465       2.16438341       0.00157168    -609.40735013      -0.37752572       0.48701547       0.70488517
96
Lattice="12.299111366271973 0.0 0.0 0.397482693195343 12.292691230773926 0.0 0.0 0.0 12.580405235290527" Properties=species:S:1:pos:R:3:initial_charges:R:1:energies:R:1:forces:R:3 original_dataset_index=325 energy=-58453.00839082822 pbc="F F F"
Pb       9.80696487       9.34423542      12.34290028      -0.13291109    -605.84641610      -0.37913175       0.60936245      -1.13118934
Pb       2.72300935       3.18112111      12.23282814      -0.13773479    -606.02919642      -0.48931136      -0.11390893       0.25033283
Pb       3.42855024       8.60347939      12.58703899      -0.13572255    -606.04270443       0.07850713       0.80036568       0.54568316
Pb       8.73808002       3.71268749      12.74711800      -0.12157272    -605.75982178      -0.18537062      -0.44084021       0.05403091
Pb      10.02380848       8.74180317       6.25836849      -0.12124333    -605.72428731       0.10306775       0.47329764       0.40364327
Pb       2.92291498       3.26962876       6.37637377      -0.15237419    -606.33734554      -0.09163385       0.37739444      -0.17176084
Pb       9.34111691       2.76181889       6.66177273      -0.14901321    -606.27278119      -0.07928918      -0.41660078      -0.47226593
Pb       3.25963449       9.41141319       6.24865484      -0.14706042    -606.14439448       0.42084031      -0.73446693      -0.32531989
I        9.71958637       8.60726643       9.23892975       0.07403257    -608.39176545       0.07676392       0.08008771       0.12567985
I        3.68993664       3.38526964       9.42478561       0.07974195    -608.45979529       0.32742079      -0.00705027      -0.31542385
I        9.56668186       2.62428331       3.38295245       0.07954933    -608.37971284      -0.73711276       0.13402386       0.22748095
I        4.40984678       9.43655968       3.18997073       0.07671405    -608.35695214      -0.56885373      -0.21555644       0.02499406
I        3.03323436       2.85323119       2.93138742       0.07576141    -608.37995096      -0.68854792      -0.16254754       0.33597070
I        9.42576599       9.57189751       2.83158088       0.16755423    -608.80494297      -2.88247517       1.22891712       1.83049805
I        3.66691113       9.03540707       9.37898064       0.08011089    -608.46162659      -0.01633775       0.15271142       0.32916319
I        9.10705948       3.34013104       9.63352680       0.08036576    -608.49578080      -0.20504692       0.30078178       0.61513934
I       -0.95116073       1.93611968      12.93481255       0.10174907    -608.69477573       1.16657345       0.06723325      -0.33783180
I        6.67403698       9.11836433      12.34878922       0.06376117    -608.23636641      -0.16320226      -0.22045065      -0.04373855
I       10.01153183       6.45164061       0.18263742       0.08973718    -608.54135145       0.34216651      -0.96383245       0.00664381
I        4.57549095      12.54771805      -0.17935610       0.17535639    -609.16108020      -0.06187149      -0.35458328       1.00866841
I       12.80075359       9.95888138       6.86048603       0.08422501    -608.46228940      -0.76381037      -0.07772575      -0.09512235
I        5.97403288       3.01039243       5.95462084       0.08139644    -608.42617446       0.64353328      -0.03702279       0.07599122
I        3.42089868       6.34135056       5.76325417       0.06305671    -608.20620899      -0.29261721      -0.21793361       0.11413730
I        9.06568050      -0.36661673       6.14335680       0.07536371    -608.39404752       0.10380048      -0.05606418      -0.22867042
I       12.76690292      10.03069210       0.04849998       0.08370388    -608.46247587       0.18731273       0.33536427       0.15622192
I        5.42124796       4.01232576       0.49363613       0.06969970    -608.28710093       0.93204914       0.35119442      -0.25578062
I        1.94489563       6.18819523      12.01251411       0.08458862    -608.49082047      -0.29420148      -0.43210682       0.26437921
I        8.38547134       0.14178789      12.21779728       0.10511615    -608.70156656       0.02500066      -0.15104811       0.28702913
I        0.10590137       2.24777007       6.67277527       0.07017478    -608.33150254      -0.51342166       0.08203732       0.15177327
I        6.51835489       9.42914581       6.75764894       0.15141183    -609.05670145       0.47232166      -0.45762664      -0.04905660
I        9.91502857       5.72114658       6.12331438       0.08689090    -608.55230544      -0.19491092       0.22094751      -0.23859540
I        4.06990337      12.25282192       6.41505146       0.08701367    -608.45954596      -0.09645212       1.01412200       0.01380432
N        6.16623163       6.03833389       4.06605339       0.01221282    -610.27603179       0.71232658       1.83125732       1.19398709
N       12.09790611      11.31622696       3.38797498       0.05465072    -610.48608011      -1.32727502       2.99316435      -1.63359162
N        1.12496483       6.02346802       8.25416183       0.00496683    -610.71127874       0.35849491       0.29448297      -0.67655554
N        5.36710930       0.03014552       9.41027451       0.05369934    -610.48544486       0.08850756       1.02397079      -1.55257107
N        6.84195709       6.90380526       9.60822105       0.01233139    -610.20841387      -1.68133525       3.24856811      -0.97917251
N        0.66458189       0.50398457       9.61852646       0.00735528    -610.62477522       0.39666094      -0.24567507       0.15393066
N       12.16108608       4.49433899       2.69244862       0.04894412    -610.45542051      -0.20838957       0.26258860      -0.78635271
N        6.98567963      11.37948513       2.48143506       0.01231565    -610.46912578      -0.20933818       2.84513384      -2.05138964
C        6.10976219       6.28201675      10.40734673      -0.12544559    -610.10782409      -1.14255599      -1.09938475       0.40674862
C       12.05640030      12.08535004       9.51368809      -0.16371129    -609.93329282       0.30818810       1.60734431       0.49127223
C        0.32177755       5.69000340       3.38746881      -0.17386898    -610.11697129       0.32405141       0.99524537       1.14676333
C        6.48232746       0.30370626       3.30152440      -0.17235038    -609.79392720       0.28422860      -3.04416880       2.93594496
C        6.07742214       4.83281374       3.66364741      -0.11960939    -610.03270377       0.45519805      -1.38548769      -0.60683179
C        0.12532835       0.26033631       3.73642468      -0.17273812    -610.06191136      -0.23152929       0.55240363       0.07467291
C       12.37703133       5.41611814       9.09671211      -0.16066518    -609.88770352       1.36224694       0.10320613       0.18894854
C        7.22270012      12.41837978       9.07271385      -0.16856822    -610.08015659      -0.05659438      -0.12826360       0.09519812
H       12.44838142       5.83790922      10.12807178      -0.00063045    -609.15960401      -0.76763807      -0.08357227      -0.46028328
H        7.40111780      12.29619789       7.98997021      -0.00210597    -609.34834671      -0.27432111      -0.17940438       0.36453366
H       11.40654755       5.53482008       8.60758114      -0.00501645    -609.20897953       0.01057028      -0.00960752       0.30421742
H        7.58629608      13.42345333       9.32499504      -0.00341679    -609.36139194      -0.11748218      -0.08935642       0.16699879
H        0.32681835       4.32465458       9.21481705      -0.00351176    -609.22873027      -0.38099838       0.65901061      -0.26463595
H        7.74943638      11.66157722       9.67194271      -0.00383485    -609.37520042       0.03327360       0.17503404      -0.38401544
H        1.14176142       5.41203451       4.04738140      -0.00284372    -609.38262953       0.25576755      -0.18253418       0.06697668
H        6.42004395      -0.35961479       4.22469473       0.00476643    -609.24060869       0.02216413       1.77352332       0.78291741
H       -0.39482120       6.17789459       4.05557394      -0.00277883    -609.31583371      -0.40209561      -0.26111343      -0.48962483
H        5.58565092       0.88909346       3.38478684      -0.00402845    -609.08966918      -0.70990502       0.33499466      -0.89016352
H       13.01974201       6.39739895       2.68077946      -0.00263002    -609.38156105       0.05224363       0.30457392      -0.45226313
H        7.39638901       0.89026809       3.42869759      -0.00401192    -609.20911173      -0.04843363      -0.14909680      -0.57904811
H        6.09161806      12.35381699      13.24633789      -0.00008362    -608.21987737      -0.35744402      -0.27972753       0.00390550
H        5.13721418       0.37475881      10.34921551      -0.00085803    -609.39875140       0.12772319       0.50444597       0.33105709
H        1.99695861       6.23952246       8.73361111       0.00043825    -609.25992335      -0.06755886      -0.37210132       0.31165481
H        4.80187607       0.58145970       8.69601154       0.00163047    -609.45475843       0.29297094      -0.53949540       0.72753938
H        0.95840514       6.90435600       7.73430347       0.00104136    -609.23693574      -0.72296707      -0.71934573       0.48803002
H        4.97443008      -0.90995705       9.43368626       0.00325861    -609.47239462      -0.07808288      -0.75325716      -0.33950358
H       11.79907990       4.68999910       1.73731422       0.00037858    -609.50383923       0.08166592       0.22807344       0.37275808
H        6.05896664      10.83973598       7.50358963      -0.00741252    -608.07315870       0.05051793      -0.23565597      -0.42279324
H       -0.94752342       3.97213006       3.16620588      -0.00015213    -609.41213874       0.79695658      -0.12011441      -0.09437739
H        6.35938025      10.61668015       2.71209741      -0.00011117    -609.00683790       0.24614857      -0.31438390      -0.05848064
H       13.04925346       3.97060513       2.54991102      -0.00024222    -609.40162850      -0.30510849      -0.93342684       0.16005839
H        7.92773247      11.27775097       2.15188265       0.00220354    -609.00397022      -0.40334547      -0.42828797      -0.49065383
H       -2.20786071       0.51611394      12.92253113      -0.00042909    -608.22480960      -0.26062355       0.39761776      -0.33710721
H        6.55817318       7.87953663       9.26865005       0.00247606    -609.23227858       0.71397813      -1.24514001       0.54255194
H        8.39837170       6.76568747      15.55654812       0.01080502    -608.95577138      -0.11216652      -0.19729307      -0.23853150
H        1.70556736      12.50015926      10.36044407       0.00269851    -609.20562239      -0.97285096      -0.16208049       0.79948650
H        1.25628984       0.17037258       8.88120556       0.00066534    -609.20565981       0.19147826       0.00915504      -1.37143967
H        7.66836977       6.51292849       9.28820133       0.00435649    -609.14396934       2.18625732      -0.84142109      -1.10996836
H        5.19513893       6.70614624      10.77770424      -0.00464853    -609.10769479      -0.37279314       0.25386405       0.11985895
H       11.68186951      -1.22021925       9.88814640      -0.00317423    -609.20379203      -0.25011548      -0.46979817       0.17532474
H       22.49361229      -3.47075343       2.28745270      -0.00218555    -607.90628649       3.17972077      -1.91317468      -1.05054639
H       11.72802639      12.10710812       8.47616482      -0.00463559    -609.22548141       0.15057571      -0.12440044      -0.28002432
H        6.33003807       5.25044966      10.57351780      -0.00328538    -609.09483181       0.22798028      -0.69815521       0.55074381
H       11.30344105      12.72767830      10.01610470      -0.00492885    -609.24870808       0.12977138      -0.57072226       0.28669762
H        7.94208384       6.61834145       2.39506173       0.01059118    -608.95793580       0.18472046       0.05320029       0.23647584
H        0.98422861       0.00490826       4.34328842      -0.00449723    -609.38689034       0.42896830      -0.05077124       0.06459641
H        5.15664721       4.43279266       3.14089847      -0.00447963    -609.06740547       0.93187249       0.54889430       0.80069674
H       -0.15870434      13.08697414       4.39145327      -0.00407520    -609.32699218       0.15767430       0.56735099      -0.16647681
H        7.02139521       4.30996466       3.64438057      -0.00437262    -608.96120667       0.10819284      -0.62209627      -0.22694677
H        0.39535895       0.80541849       2.83201551      -0.00434993    -609.35761050      -0.01192276       0.07871134       0.18273695
H       11.87761688      11.21687317       2.38577962       0.00176677    -609.37452468      -0.44427980       0.45236030      -0.16388069
H        6.91736794       6.49226475       4.65275955       0.00329028    -609.19739489      -0.42322020      -1.13804603      -1.04407481
H       11.25419140      11.25503540       3.95136571      -0.00060447    -609.29982114      -0.33551558      -0.68271078       0.45557053
H       14.52842617       9.05276871       2.10133004      -0.00828716    -608.00357978       0.48979675       0.02709665      -0.24355303
H        5.34882212       6.60007858       4.05672932       0.00496168    -609.20750098      -1.29493138       0.87181629       0.06634152
H       12.34454823      -1.65635419       3.44321895       0.00333218    -609.28137225       2.45416623      -3.89629265       1.23915257
96
Lattice="12.299111366271973 0.0 0.0 0.397482693195343 12.292691230773926 0.0 0.0 0.0 12.580405235290527" Properties=species:S:1:pos:R:3:initial_charges:R:1:energies:R:1:forces:R:3 original_dataset_index=200 energy=-58453.662966835334 pbc="F F F"
Pb      10.11037540       9.92949390      12.24930382      -0.11783929    -605.65001968      -0.68555184      -0.45159022      -0.69124509
Pb       2.50067973       2.72846150      12.24749660      -0.14273573    -606.10066743       1.03484554       2.01842142       1.85573237
Pb       3.72209907       8.81675434      12.49418259      -0.11808340    -605.73942519       0.19220122      -0.90818543       0.43878636
Pb       8.50398540       3.51632142      12.99766254      -0.12713861    -605.82328045       0.23804516       0.41789799      -0.49679070
Pb       9.46175098       8.74658108       6.08680391      -0.13804097    -606.11268447       0.27181815      -0.23217063       0.55281191
Pb       2.83354616       3.30074978       6.04004955      -0.12510101    -605.81324752       0.03989426       0.49403084      -0.00316905
Pb       9.48584080       2.60611868       6.77060604      -0.13556473    -606.01567705      -0.48918818       0.35546748      -0.15969909
Pb       3.38054800       9.78375721       6.37037945      -0.12574451    -605.83160164       0.17249723      -0.87555118      -0.52972301
I       10.24786377       8.40326881       9.08108902       0.06260552    -608.25521366      -0.29553514       0.32864670       0.08954848
I        3.62132215       3.32042742       9.55036926       0.07188315    -608.34629713       0.55416148       0.02106523      -0.95771659
I        9.17439461       2.70533204       3.33144975       0.09469182    -608.54013027       0.34652790      -0.19265379       0.22603441
I        4.53876305       9.47747040       3.02556324       0.07867615    -608.43499681      -0.43494727       0.12662348       0.28553966
I        2.25485373       3.31495619       2.96325994       0.07499011    -608.37745776       0.24482417       0.14713455       0.92889188
I        9.68457413       9.20403767       2.66853833       0.11477600    -608.74755214      -0.72785653      -0.87667942       0.10364099
I        3.50469971       9.52057171       9.46440983       0.10169348    -608.64858703      -0.00302288      -0.00070215       0.02925182
I        9.38026333       3.27382970       9.75232887       0.08066127    -608.45206814       0.01231957      -0.05765729       0.05343535
I       -0.61850035       2.17616200      13.01756573       0.10500541    -608.74993574      -0.71993160      -0.75203179       0.76377490
I        6.71926594       8.52674961      12.54053020       0.06518365    -608.31999025       0.00927508      -0.09358595      -0.48607398
I       10.29580116       5.99584055      -0.11477442       0.07623298    -608.39117242      -0.36421124       0.37739765       0.10804835
I        3.94390035      12.09428787       0.06702258       0.15786579    -609.07422689       0.25885561       0.10296040       0.29048128
I       12.66981316       9.75571632       5.88330650       0.09614322    -608.59960917      -0.10766375       0.33767518       0.18035193
I        6.59888124       3.80525517       6.44822598       0.06537376    -608.14472199      -0.05343719      -1.32235718      -0.88213827
I        2.93472815       6.50624323       5.81885624       0.08468399    -608.46724615       0.20588798      -0.12573375       0.19382648
I        8.45102501      -0.43032640       6.13174200       0.09259468    -608.59581437       0.09094358       0.07879942      -0.28377267
I       12.96887875      10.19958305       0.24242552       0.10936818    -608.69642433       0.34485777       0.04581768      -0.03022477
I        5.45923662       3.56833339       0.28229356       0.08058562    -608.45786934       0.63964181       0.16985293       0.26218966
I        1.91338229       5.77769852      12.65508175       0.06955440    -608.32220065       0.20637006       0.55979103      -0.39709495
I        8.32643032       0.38585201      12.78897095       0.09699409    -608.62273445      -0.33142956      -0.73631897      -0.13613510
I        0.10890082       1.97454786       6.43107700       0.09122162    -608.58159203       0.39390472      -0.27447160      -0.04940923
I        6.65985775       8.48329163       7.16233587       0.07500048    -608.31004939      -0.53793946       0.92864545      -0.39412697
I       10.52551842       5.60015583       5.91460609       0.09116024    -608.56800339      -0.16335580       0.12143461       0.07404836
I        4.17598820      12.69246483       6.15424156       0.10080559    -608.64770500       0.49743479      -0.19364754       0.29588667
N        6.22236729       6.68054390       4.25750589       0.00851663    -610.65926860       0.16027073      -0.92980388       0.79699772
N       12.42034340      12.01329994       3.17345428       0.05221240    -610.46456217       1.27854758      -0.72362204       2.05051918
N        0.74930269       6.86086941       8.66865349       0.00873178    -610.55361277      -0.84878697      -0.35426670       0.43726869
N        5.43614483       0.07910282       9.68457699       0.04959298    -610.47591626       0.11227727      -0.21362092      -1.96486288
N        7.30588388       5.91690969       8.85585594       0.01732831    -610.19573484       1.64708302      -2.18214536      -0.20958332
N        0.66974568      -0.11845272       9.59420967       0.00788905    -610.69062357       0.78861128      -0.02321407      -3.25549640
N       12.02170086       6.35165358       2.88885880       0.05941243    -610.42047332       0.83832834       0.53455550       1.32709520
N        6.77934933      12.25986099       3.21932554       0.04844738    -610.49745136       0.38787601      -0.78003826       1.71802053
C        6.11407709       6.00977373       8.48046303      -0.12464115    -610.13041717      -4.81938846       2.79690736       0.25809022
C       11.93931103      12.30734539       9.65920067      -0.16457857    -609.84497042       0.40595499       2.09464897      -0.51896860
C        0.67383033       7.47014475       3.06793380      -0.17245710    -610.11417279      -1.07533960       0.77747031      -0.46291669
C        5.62854290       1.24943697       3.11195827      -0.17098700    -610.06559316       2.60219404       0.47743479       1.12735130
C        7.28749847       6.11421347       3.47022128      -0.17663312    -609.73893198      -0.31045484       0.69772816       1.37553069
C        1.20875883      -0.19536655       3.40966463      -0.16795109    -610.15748576      -0.13853667       1.42211555      -0.28911618
C       12.76018238       5.44413280       8.83017731      -0.17083374    -609.97468909       2.36150206       0.16197214       2.02682462
C        7.29044151      12.49025059       9.27042961      -0.16223751    -610.10284018       0.05690081      -1.24902703      -1.60008394
H       13.65689087       5.04628420       9.46742058       0.00127083    -609.31517530      -1.37922369      -0.22909960      -1.03909895
H        7.35939503      12.87752724       8.21680069      -0.00222171    -609.35890518      -0.37050347      -0.04628829       0.97024458
H       11.89252853       5.26342440       9.43453789      -0.00384281    -609.15932252      -0.93241276      -0.24431784      -0.03334419
H        7.80558586      13.14021301       9.95203876      -0.00331298    -609.31725623       0.25027968       0.32675521       0.35167551
H        0.47536236       5.03351402       7.84428310      -0.00456654    -609.19035298      -0.36182352      -0.85797613      -0.40319122
H        7.79107094      11.46429729       9.19024754      -0.00237636    -609.41945021      -0.78030779       1.09677046       0.52891764
H        0.15647413       8.23553562       3.63913751      -0.00316999    -609.36704591       0.06243747       0.07987362       0.06001712
H        5.09564590       1.37885475       4.03562880      -0.00298026    -609.31113366      -0.25163048       0.27631089       0.43581773
H        0.99245501       7.87415218       2.11974907      -0.00479568    -609.37813642      -0.05254777      -0.00474169      -0.49841584
H        5.00445461       1.28817213       2.28954172      -0.00273835    -609.19134425      -1.29588479      -0.46299704      -1.43795988
H       13.81796265       7.13705778       3.61037517      -0.00488960    -609.34267993       0.86746156      -0.49952509       0.63929845
H        6.38946199       2.06091571       2.94035578      -0.00318394    -609.41050705      -0.65429482      -0.61200984       0.45846724
H        4.73820925      13.44545841      13.33634090       0.00004778    -608.07257952       0.15448770      -0.07802403      -0.37703571
H        5.34191656       0.13946712      10.69394588       0.00107401    -609.43123221      -0.15269453      -0.35890623       0.52428628
H        1.38673270       6.82696342       7.89166117       0.00085396    -609.12342246       0.91722286       1.11971528      -0.13995987
H        4.87371159       0.89462465       9.29522991       0.00020601    -609.48130114       0.39155297      -0.55737660       0.31297749
H        1.12496901       7.19323587       9.55774879       0.00096832    -609.16022548       0.30977943       0.41267216      -0.54493311
H        5.00261974      -0.82553774       9.29259300       0.00032378    -609.47098321       0.31897267       1.08973348       0.84265572
H       12.53615856       5.55640030       2.51605916       0.00487673    -609.43956252      -0.00889247      -0.72676289      -0.65168397
H        7.49606323      12.30415630       4.03046656       0.00069868    -609.49465676      -0.51916004       0.13942282      -0.93939597
H       -1.07662904       6.55238104       2.27691841       0.00151762    -609.35734229      -0.06022416      -0.07919805      -0.16983900
H        7.27907848      12.00415421       2.36389780       0.00101108    -609.49213185       0.28807897       0.15040734      -0.34946731
H       11.72119999       6.03906441       3.85617661       0.00329471    -609.38464863      -0.39971312       0.16431023      -0.55960240
H        6.21281815      11.40708256       3.49489880       0.00172698    -609.50099878      -0.21381356       0.72126789      -0.51780257
H       -1.70717239       1.50097752      14.32808971      -0.00235717    -608.08616144       0.65458785       1.00444101      -0.66214160
H        7.74024057       6.74343348       9.19968605       0.00306029    -608.93529799       0.94778634       0.55599325       1.36785974
H        8.52286720       7.35234642      14.97019958      -0.00399882    -607.96723618       0.30756612       0.99219099       0.12537647
H        1.71191311      11.75458241      10.23647594       0.00370111    -609.15492830      -0.53984572      -0.41447556       0.83365834
H        1.03239572      -0.32363617       8.61999130       0.00073037    -609.29069174      -0.63023521       0.35839919       1.43468015
H        7.85882139       5.14757252       8.45998192       0.00234301    -609.09586475       0.53082862       0.34736242      -0.06179658
H        5.43505049       6.68350410       9.07627773      -0.00227553    -609.06135129       0.64919911      -0.33296374      -0.43542235
H       11.04667950       0.21511281       8.65925789      -0.00334158    -609.29881845       0.93092631       0.13673527       0.77669118
H       13.94960117       2.00374317      11.03257465      -0.00781303    -607.90345651      -2.01392483      -1.33951943      -2.31583036
H       11.69341278      13.13447952      10.34587288      -0.00124802    -609.16059963      -0.16467051       0.13199602      -0.30667151
H        5.56348419       5.60602999       7.60423660      -0.00136553    -608.79344623       0.73335950      -0.58423331       0.90536295
H       11.36426640      11.51965618      10.01477528      -0.00202580    -609.00805866      -0.91585996      -2.40170053       0.98538145
H        7.39717054       6.67271519       2.48708367       0.00027324    -609.23073842      -0.06830974      -0.18166404      -0.15528301
H        1.65791082      -1.09676087       3.05488825      -0.00464060    -609.40522376       0.27552379      -0.73824066      -0.26602846
H        7.40742159       5.02334309       3.32255149      -0.00189002    -609.11772383      -0.58606043       0.08097986      -0.32807107
H        1.82586157      12.24520683       4.46449995      -0.00473352    -609.39380056      -0.26427310      -0.11550326       0.11851455
H        8.18890953       6.35967064       4.02554512      -0.00106685    -609.08768834       0.82732842      -0.23043366       0.30122333
H        1.61190116       0.68752819       2.87823033      -0.00358968    -609.39747101      -0.26289924      -0.42760658       0.06663240
H       11.93200207      12.85363007       3.50185585       0.00117534    -609.43305372      -0.13968588       0.16425931      -0.35551730
H        5.97975874       6.29655838       5.22335958       0.00139561    -609.16763613       1.11829603       0.30168126      -1.48944205
H       12.13532925      11.21527481       3.79651070       0.00226311    -609.44725298      -0.28271455       0.23146765      -0.15442692
H       11.72985649       4.13983727       2.65920639      -0.00703083    -608.00501416      -0.21684455      -0.68243828      -0.11021763
H        5.34512901       6.79335880       3.80628967       0.00156496    -609.20049264      -0.70628294       0.15500990      -0.77831733
H       11.91088581      -0.57293260       2.21441102       0.00176339    -609.35065036      -0.59821730       0.12282857      -1.01047135
96
Lattice="12.299111366271973 0.0 0.0 0.397482693195343 12.292691230773926 0.0 0.0 0.0 12.580405235290527" Properties=species:S:1:pos:R:3:initial_charges:R:1:energies:R:1:forces:R:3 original_dataset_index=202 energy=-58453.58846121531 pbc="F F F"
Pb      10.11264992       9.92342758      12.24184227      -0.12724727    -605.85928103      -0.69566130      -0.58469901      -0.60719461
Pb       2.49154949       2.72735357      12.25054932      -0.14057669    -606.07141465      -0.61453449       0.62935617      -0.57350569
Pb       3.71743870       8.82194424      12.49601555      -0.11843815    -605.74028876       0.13519304      -0.96014754       0.47141422
Pb       8.50788879       3.52078342      12.98955727      -0.13174599    -605.92620885       0.32941219       0.30351756      -0.43390428
Pb       9.46790314       8.74312973       6.09077072      -0.14051649    -606.15756583       0.42214350      -0.17136702       0.49888802
Pb       2.83621597       3.31210446       6.04057264      -0.12211717    -605.74559070       0.08141934       0.39251723       0.28783400
Pb       9.48024082       2.61259913       6.76798868      -0.13938254    -606.09235057      -0.41952698       0.32023509      -0.07283393
Pb       3.38374281       9.77172470       6.35662031      -0.12650648    -605.86422306       0.16158940      -0.77706980      -0.48152429
I       10.24117184       8.40791035       9.08176231       0.05922451    -608.21127531      -0.30630498       0.25112403       0.11132626
I        3.62275243       3.32452726       9.54093552       0.07965620    -608.44077417       0.47403729       0.12569072      -0.95302707
I        9.18410492       2.69847941       3.34965658       0.08873690    -608.49431228       0.19848930      -0.18494315       0.16795681
I        4.53305721       9.48632908       3.02315140       0.07746590    -608.41931460      -0.38117391      -0.00342689       0.32821904
I        2.25540662       3.31072092       2.97023296       0.09802760    -608.58631408      -0.37621382       0.37381914       0.44839919
I        9.68364048       9.20723724       2.67099953       0.11569421    -608.73529368      -0.47137305      -0.56730067       0.25077035
I        3.50965905       9.51340675       9.48495197       0.10101303    -608.64130126      -0.02393214       0.00115477      -0.03320761
I        9.37548923       3.27874923       9.76476288       0.07001946    -608.34542019       0.03103257      -0.17018815       0.05382471
I       -0.61368537       2.17486763      13.01759338       0.10966887    -608.78909112      -0.62738220      -0.78175432       0.64644966
I        6.72148991       8.53260612      12.54408646       0.06903104    -608.35978016       0.03130969      -0.09788903      -0.54227880
I       10.29790592       5.99696922      -0.11167426       0.07495277    -608.38917487      -0.28082164       0.39629495       0.19945090
I        3.95323467      12.10127640       0.06262397       0.16302103    -608.97886527      -0.94327508      -1.72981059      -1.36033444
I       12.66245651       9.75607491       5.88645983       0.09074691    -608.54660374      -0.03221324       0.29671201       0.27196271
I        6.60219288       3.79273343       6.44368172       0.07570441    -608.24927823      -0.10655757      -1.27027692      -0.98480761
I        2.94158792       6.49533463       5.82023907       0.08554569    -608.47612653       0.24368945      -0.13076610       0.19145963
I        8.46391392      -0.43538314       6.13041306       0.08849559    -608.55835229       0.09329998       0.09114642      -0.27852488
I       12.97110176      10.19692802       0.24480791       0.10983142    -608.69345702       0.30769822       0.03542522      -0.02671143
I        5.46861410       3.57227874       0.29058343       0.07781393    -608.44403573       0.29886398       0.38312549       0.20894861
I        1.89083958       5.78833771      12.64813900       0.07287316    -608.35814867       0.25981405       0.52284434      -0.30690906
I        8.31619644       0.38346872      12.79293728       0.10146166    -608.65657779      -0.34835022      -0.67424875      -0.09946340
I        0.10469528       1.97968376       6.42715645       0.09267205    -608.59193124       0.47936999      -0.26124311      -0.07891051
I        6.65272999       8.49341869       7.15682220       0.08208025    -608.40581151      -0.68744083       0.76244543      -0.28266497
I       10.52076340       5.59851360       5.90784979       0.08641944    -608.51730427      -0.21509735       0.15369450       0.16141525
I        4.18221903      12.69839382       6.15279007       0.09755176    -608.62268348       0.39711751      -0.23542983       0.35102078
N        6.24965858       6.68352509       4.27654791       0.00549778    -610.55522981      -2.38522378      -0.95518607      -0.88358528
N       12.41811466      11.99236202       3.19246602       0.05141377    -610.46669124       0.54909597       1.44186811      -0.42100196
N        0.76640475       6.86119461       8.68677235       0.00764493    -610.63388054      -0.21788532       0.12109908      -1.84513917
N        5.42073536       0.06142803       9.66680527       0.05117295    -610.51808410       1.57856006       2.19159154       0.88201108
N        7.31907654       5.84698296       8.80211258       0.01937186    -610.01989281       0.39576143      -0.34818273      -1.08188245
N        0.68743664      -0.12305422       9.60184383       0.01301930    -610.61456774      -1.07529556       0.06609190       0.38345561
N       12.02626514       6.31505060       2.94439530       0.05280504    -610.44708256       1.45901253       0.05570815      -1.78350032
N        6.74661303      12.24221420       3.20505834       0.04861906    -610.46175894       2.64914327       0.44089793      -0.65751220
C        6.10217524       6.04573774       8.41604614      -0.13276365    -610.11885596      -0.21641938       1.72621040       2.74377993
C       11.92907715      12.34612656       9.63896751      -0.15550900    -609.79551140       0.76823934      -2.49223873       4.00391773
C        0.66707778       7.45075321       3.09049225      -0.16627799    -610.11575065       0.94685197      -0.43907186      -1.13212114
C        5.60793447       1.25279522       3.11719418      -0.16946647    -610.03293310      -0.05459371      -0.41229850      -0.83126096
C        7.27923107       6.10792017       3.50220656      -0.21532203    -609.49752491       0.56411584       0.70612386       1.20938235
C        1.21310890      -0.19255222       3.40631866      -0.16641015    -610.15318250      -0.93682134      -1.08397477       0.18324313
C       12.75833893       5.44483423       8.85393715      -0.16611324    -609.90701552       1.31892114       0.10618577       0.22154665
C        7.27934217      12.48515606       9.22568417      -0.16531914    -610.11781649      -1.43057360       1.02941566       1.06888944
H       13.64971447       5.11434937       9.40236378       0.00256085    -609.18014004      -0.42892717      -1.05381194       0.42035290
H        7.33066177      12.87554741       8.24475861      -0.00288182    -609.29790239      -0.33405499       0.94569374      -1.02451633
H       11.83100891       5.23470640       9.42353535      -0.00466159    -609.20236407       0.25590824       0.02322599      -0.45902694
H        7.76326704      13.13385201       9.95336723      -0.00351031    -609.38832907       0.24132696      -0.03522763      -0.10129260
H        0.53439504       4.93604279       7.84427929      -0.00493405    -609.27956185      -0.63883768       0.48888609       1.00691803
H        7.72883415      11.54730511       9.11018658      -0.00343572    -609.30830966       0.62962124      -1.74813783       0.48507419
H        0.13903376       8.22707748       3.60026836      -0.00393373    -609.31611668       0.07681811       0.50202940       0.62167435
H        5.07120037       1.31199121       4.06129026      -0.00288753    -609.31021132      -0.04363788       0.55591321       0.02407124
H        0.90063971       7.78189039       2.07520056      -0.00321764    -609.38844648      -0.09328613       0.07831620      -0.04164392
H        4.90576029       1.31650662       2.24079680      -0.00175110    -609.32852464       0.48310259      -0.46914292       1.06962959
H       13.95821285       7.13844109       3.51931095      -0.00367654    -609.38836947      -1.21836365       0.18643464       0.05360507
H        6.30509329       2.06714344       2.89213538      -0.00444048    -609.32797545       0.08319412      -0.10802165       0.59531511
H        4.68952751      13.10186768      13.55161953       0.00040998    -607.99551819       1.19371689       1.22861395       1.20052332
H        5.36121464       0.02280050      10.71306992       0.00155216    -609.46479237       0.09035531       0.29943306      -0.59248324
H        1.42213547       6.89235163       7.87577057      -0.00045954    -609.19150101      -0.37088361       0.71846493       0.97543688
H        4.84625292       0.89130652       9.32893276      -0.00024864    -609.45565919       0.24114928      -0.74541491       0.30663760
H        1.07785833       7.38747787       9.49850941       0.00061712    -609.15396636       0.12843407      -0.41556256      -0.06645942
H        5.04253769      -0.79979557       9.38725948       0.00158679    -609.41521042      -1.19286467      -1.76878935      -1.02383879
H       12.53666592       5.49486876       2.47438622       0.00268904    -609.49923199      -0.71016198       0.59281235       0.49576730
H        7.56005812      12.33667946       3.92343593       0.00098220    -609.47342052      -1.15846031      -0.19900760      -0.53886380
H       -1.07746542       6.54261971       2.32637787       0.00070023    -609.40257549       0.12399827      -0.12640865       0.06761987
H        7.29267311      11.98003006       2.30303359       0.00123479    -609.51424335      -0.97085693       0.49414169       0.94561505
H       11.69430733       6.03016281       3.84523487       0.00200992    -609.36241847      -0.59893138      -0.61888977       1.23206445
H        6.18851042      11.42168903       3.47536469       0.00150897    -609.44971062      -0.44486482      -0.13859439       0.00004308
H       -1.77063358       1.34696591      14.23045635      -0.00261421    -608.07938163       0.63933520       0.92469453      -0.78863695
H        7.70931816       6.63783503       9.41234207       0.00103479    -608.93904693       0.24936307      -1.91746795      -0.85452853
H        8.36956501       7.08368444      15.19483566       0.01146719    -608.36063684      -0.09542997       0.65078244      -0.12923330
H        1.68619835      11.75630188      10.31467533       0.00570895    -609.16926517      -0.97683424       0.20443435      -0.11512532
H        1.02899539      -0.27690083       8.69330502       0.00162346    -609.23828707       0.85120381      -0.05346324      -0.86501851
H        7.72705650       5.18795967       8.05778027       0.00408433    -609.03537264       0.96618038       0.96054035       1.39140785
H        5.58395910       6.57172680       9.18048573      -0.00337040    -609.06804972      -1.30028898       0.86139495       0.12987627
H       11.16258717       0.20342425       8.66672611      -0.00378187    -609.12292333      -0.76097850       0.44210050      -1.20272440
H       14.24544811       1.27771091      10.45366764      -0.00644727    -608.04648825      -0.09829146       0.03033574       0.03475196
H       11.68181038      13.10042381      10.40580082      -0.00153838    -609.07346990      -0.11089248       0.37609358      -0.56125473
H        5.62335348       5.54380894       7.62246704      -0.00308442    -608.91699914      -0.42498604      -0.44411328      -0.58041730
H       11.36035538      11.38254929      10.17755604      -0.00071520    -609.18706409       1.07546160       1.49959049      -1.48885652
H        7.41987896       6.72734070       2.41358590       0.00934406    -609.15444423      -0.03936743      -0.15685592       0.37281949
H        1.67089748      -1.11973369       3.04051304      -0.00489991    -609.41621861       0.07660853       0.31253426       0.03211184
H        7.42264652       5.04767370       3.17149878      -0.00560220    -609.07587125      -0.72748088       0.39434735      -0.09749951
H        1.79239917      12.25192738       4.46227217      -0.00455726    -609.39751103      -0.06926558      -0.30175357       0.37673612
H        8.20077896       6.33582640       4.08532715      -0.00426629    -608.92389383       0.08590982      -0.54270096      -0.01279757
H        1.53551877       0.70259386       2.94806886      -0.00440332    -609.30134428       0.51299058       0.77711634      -1.02563328
H       11.99152851      12.89683342       3.51743388       0.00110652    -609.48886488      -0.01168037      -0.68786944      -0.47710960
H        6.13580751       6.33830214       5.26387358       0.00194569    -609.08870471       0.88775966       0.39032655      -1.02316855
H       12.06804562      11.25512123       3.79250002       0.00120400    -609.43185374      -0.42406566      -0.82215976       0.56638650
H       12.37639332       3.94766283       2.73567057      -0.00514686    -608.01194272       0.73982406      -0.52431060      -0.03809160
H        5.23789310       6.65764046       3.90548182       0.00212060    -609.18917533       2.11949717       0.05149726       0.22718602
H       11.80947018      -0.52756774       2.17727327       0.00143498    -609.42166680       0.16442527       0.29516813       0.88283493
96
Lattice="12.299111366271973 0.0 0.0 0.397482693195343 12.292691230773926 0.0 0.0 0.0 12.580405235290527" Properties=species:S:1:pos:R:3:initial_charges:R:1:energies:R:1:forces:R:3 original_dataset_index=75 energy=-58460.302008745704 pbc="F F F"
Pb       9.78187943       9.25126648      12.33934212      -0.12418481    -605.69247785      -0.05157526       1.02825041       0.25743952
Pb       2.61442089       2.65344477      12.18261051      -0.12410343    -605.81140041       0.14830149       0.34424711       0.17128035
Pb       3.93599081       8.63365269      12.68912601      -0.13100138    -605.86433141      -1.26963221       0.70855076      -0.42067508
Pb       8.99825954       3.55792427      12.91590881      -0.12960528    -605.81694040       0.90020578      -0.86800892      -0.23074355
Pb       9.63430119       8.90108871       6.26359463      -0.14000067    -606.04453452      -0.31805512       0.41588045      -0.16449569
Pb       2.98198700       3.18987393       6.18135548      -0.14932555    -606.34361291      -0.00570441      -0.22467917      -0.34267358
Pb       9.38575268       2.66838074       6.24357271      -0.11400513    -605.54443437      -0.02576112       0.07566701       1.00333007
Pb       3.43385124       9.39738560       6.15125751      -0.13772547    -606.08906597      -0.37847735       0.24356627       0.46273771
I       10.37634754       8.56127834       9.28965569       0.08188453    -608.46969190      -0.25392745      -0.72999344       0.15227909
I        3.48032451       2.79064155       9.16708088       0.08582532    -608.50134365       0.16793452       0.06736892       0.97487101
I        9.30294609       2.90914392       3.38443041       0.09682153    -608.61720652       0.07766251       0.10238756      -0.57161285
I        4.40487432       8.97456551       3.27849507       0.10188386    -608.62800687      -0.18424035       0.12805279      -0.30115882
I        2.53820062       3.76698899       2.98688388       0.08070266    -608.43661837       0.24474591      -0.15451903       0.12796750
I        9.76368523       9.59471893       3.18009377       0.08454345    -608.46091967      -0.52538151       0.17743496      -0.49265604
I        2.77028728       9.77630043       9.94830418       0.04907977    -608.12148928       0.73874344      -0.27606690      -0.80019430
I        9.46821117       2.98561645       9.85884094       0.09716439    -608.51619239      -0.30126528       0.05391248      -0.31392408
I       -0.29067215       2.27482748      12.62039185       0.09979604    -608.55117565      -0.03673756       0.30294274      -0.36062746
I        6.76911688       8.53413677      12.32826233       0.09133032    -608.54032427      -0.07385427      -0.31424519      -0.04652421
I        9.72533607       6.32600212      -0.29101291       0.08526310    -608.50755084       0.67772910      -0.47629501       0.26352072
I        4.07785702      12.12435818       0.20868346       0.09355611    -608.56329293      -0.18043946       0.20273832      -0.02657478
I       12.35332394      10.15295029       6.04170561       0.07530300    -608.39446870       0.26751210      -0.25159142      -0.11230154
I        6.16844463       4.18576527       6.32701969       0.08282781    -608.41091042       0.12894296      -0.21106483      -0.46399743
I        2.68294191       6.40883207       6.15733051       0.07752991    -608.44328497      -0.22483271       0.24086886      -0.14913380
I        7.75032663       0.22094037       6.53509665       0.06936326    -608.23936034       1.07961152      -0.07710304      -0.56308498
I       12.48105717      10.26909256      -0.43099248       0.08704765    -608.51636150       0.36509264       0.30173206       0.81836556
I        5.95919466       3.75683069       0.14279585       0.18664870    -609.09259868      -1.90231155      -3.46024643       0.17900076
I        2.38958621       6.06504059      12.79442215       0.07571138    -608.37123281       0.03062351      -0.19028794      -0.10474900
I        8.39735508       0.43572733      12.63475227       0.09274551    -608.54492077      -0.00047818      -0.43949436      -0.13710984
I        0.34892970       1.32407331       6.78406096       0.07756999    -608.36079558       0.06392411       0.89758777      -0.61159353
I        6.18069792       8.49397945       6.68281603       0.08390783    -608.48836479       0.65723166      -0.12494499       0.31142791
I       10.53477478       6.06013536       6.08868265       0.10240620    -608.60339743       0.09519548      -0.33511261      -0.06017459
I        4.92946625      12.76630592       6.35110569       0.06114261    -608.21001305      -1.35506006      -0.41119326      -0.20631289
N        5.75464439       5.76361322       2.90949631       0.04869187    -610.50863630      -1.07393468       4.39358269       0.76205972
N       12.08691025      12.68322372       2.59124231       0.05088308    -610.44890603       0.11122461      -1.03512560       1.23512167
N        1.51524055       5.97819519       9.49043751       0.00270732    -610.63160570      -1.17042209      -5.19478937       5.19863329
N        5.62818432      -0.17136756       9.71552086       0.05008302    -610.49819658       3.70873108      -0.91254719       3.81963346
N        8.12385559       5.72505665       8.47445393       0.04662719    -610.40786737       1.19222712       1.28604979       0.81372866
N       -0.88368845       0.22914211       9.54001713       0.04467104    -610.45656590      -0.19995307      -4.71172259      -1.64584103
N       12.43818951       6.68349743       3.31697226       0.05097235    -610.50417119      -1.14566658      -1.10477558      -3.08907853
N        6.60375452      11.50437927       2.30639195       0.04597419    -610.50398853       5.64644931      -1.04997897       0.89580970
C        6.94209003       5.75539923       9.42364788      -0.16370326    -610.09498982       2.40225769      -2.17610563       0.49125115
C       10.67808247      11.91569710       8.73963356      -0.16800216    -610.10665330      -2.14715021       1.15928592       1.98300692
C        0.51068860       8.02523994       2.84055853      -0.17390957    -610.07325613      -0.86224879       0.48435434       0.25131542
C        6.19956064       0.42826611       3.14070606      -0.16482261    -609.99241871      -3.69926099      -0.07835616       0.00560667
C        7.03190613       6.39095306       3.38431168      -0.16320789    -609.98151950      -0.91963484      -1.07639346       2.89908594
C        0.82053882       0.49053994       3.10112166      -0.16972297    -610.12742088      -1.61390945       1.64686538      -2.17543769
C       12.69600201       4.84352970       9.58158112      -0.16117805    -609.85073602       1.61515158       1.13842998      -0.55624049
C        6.89920759      10.91501236       9.44159222      -0.16786894    -610.11935962       0.91374061       1.91465621      -0.39229553
H       11.73973846       5.22619295       9.14671612      -0.00430124    -609.24383151       0.63058573      -0.17741208       0.67942233
H        6.30078077      10.08301735       9.22783184      -0.00391521    -609.33676598      -1.10773877      -1.24177787      -0.02184230
H       12.90435505       3.82411575       9.14785290      -0.00252507    -609.20188915       0.19227049       0.88034041      -0.63217723
H        7.48058987      11.13768578       8.53825855      -0.00363415    -609.33766694       0.13315139      -0.10901308       0.41141540
H        0.39187694       4.53654623      10.63268661      -0.00401528    -609.14971339      -0.67832112       0.66480418       0.29240517
H        7.50098991      10.80675125      10.32123089      -0.00351641    -609.35755086       0.51791028      -0.41303001       0.35535369
H       -0.19031063       8.41176319       2.15811634      -0.00276276    -609.23442839      -1.28434777       0.07254614      -0.98845333
H        6.08364868       0.07596489       4.15320301      -0.00109767    -609.20291204       0.54704982      -0.05321083       0.50632801
H        1.35695767       7.86350775       2.25764465      -0.00378400    -609.26066665       2.00902807       0.27916570      -0.55799621
H        5.13188601       0.89910358       3.01565099      -0.00191750    -609.37287849       2.11727690      -0.03848550      -0.26218782
H       12.81615734       8.82227135       3.59308290      -0.00413135    -609.30237953       0.55534196      -0.62588480       0.42941617
H        7.09610224       1.00777900       3.01200080      -0.00482998    -609.22017805       0.05849750       0.50574680      -0.30566571
H        6.49407291       5.14135933      12.52861691      -0.00095987    -607.95229433       1.15844734       3.60980062      -0.58528245
H        4.97584057      -0.53828841      10.39601040      -0.00060404    -609.39032345      -1.26042246       0.53210803       0.33549434
H        2.41146135       5.51489735       9.85459805      -0.00154700    -609.14130960      -1.42268149       1.21743077      -1.28748295
H        6.19114161       0.62675834      10.17212009       0.00085957    -609.50553780      -0.82385610      -1.33190010      -0.64655754
H        1.54095435       6.43031740       8.67035198      -0.00006025    -608.97775674       0.56041379       1.67406812      -3.89047625
H        5.28572083       0.14321005       8.89031315       0.00083990    -609.30680500      -2.26394829       1.48422631      -3.51222307
H       12.18924332       6.66593838       4.25953102       0.00088687    -609.35593058      -0.04860313      -0.33316349       2.79683981
H        6.49199867      10.64030838       2.84059715      -0.00032331    -609.46942539      -0.04195265      -0.16641155       0.47790765
H        0.87287533       6.02987432       3.02622890       0.00018991    -609.41338485       0.72283412      -0.39168338       0.74516666
H        7.66087198      11.42118740       1.85525608      -0.00038369    -609.43572992      -2.37515923       0.19601869       0.88608656
H       11.60585785       6.18753576       2.86844659       0.00136117    -609.50867959       0.56503623       1.35377389       0.13042100
H        6.03754568      11.35638428       1.53137767       0.00186754    -609.34032159      -2.02981159       0.64683949      -2.13507711
H       -1.06522238       1.04661214       9.97721577       0.00173293    -609.30313914      -1.36066652       4.23094848       1.09558028
H        8.88030720       6.54233456       8.63739300      -0.00077232    -609.46430797      -1.64464511      -1.50349952       0.03568728
H        8.65006256       4.78534174       8.65232086      -0.00128085    -609.42473550      -0.64904098       1.12451247      -0.27171145
H       -0.35210073      11.93508244      10.42716694      -0.00063358    -609.32570864       0.77810191      -0.37091624      -1.24002654
H       -0.11910975       0.37486425       8.82349873       0.00002050    -609.32302880       0.29214827      -0.22658863       0.90156463
H        7.80721283       5.81647778       7.51748896       0.00001941    -609.41089790      -0.14803973      -0.30407172      -0.78433281
H        6.30085754       6.57292032       9.34533215      -0.00365947    -609.24382053      -1.03812986       1.40602235      -0.75362214
H        9.92571640       0.07369371       7.83619356      -0.00376876    -609.18487372       1.14756679       1.14042503      -0.78788078
H        7.53382587       5.85647631      10.32400894      -0.00073843    -609.35625969      -0.57996491      -0.15922851       1.03082835
H        9.67736912      12.07350826       9.27497387      -0.00390257    -609.38987545       1.47894139      -0.65823209       0.22554200
H        6.44605064       4.75624180       9.37478065      -0.00331449    -609.43872759       0.18669960       0.84410448       0.01131356
H       10.84318542      10.89110184       8.47970295      -0.00392741    -609.27357326       0.49462761      -0.35283398       0.45051306
H        7.58503962       6.77240896       2.56817389      -0.00542020    -609.20468880       0.42897982       0.91144307      -0.92097694
H        1.15668356       1.49127507       3.32725167      -0.00361254    -609.34404101      -0.63549580       0.71146078       0.04029626
H        7.65795279       5.58897734       3.90359831      -0.00402166    -609.37723458      -0.86065756       0.74802440      -0.73827896
H        1.79177392      12.47637367       2.29291344      -0.00279607    -609.34029731       1.44039523      -0.82918789      -1.48156507
H        6.70046091       7.08989239       4.23231077      -0.00461300    -609.32523335       0.78311122      -0.43703165      -1.43214294
H        0.96675825      -0.06959081       3.91491294      -0.00380221    -609.19013861       0.36457287      -2.51974951       3.11093855
H       11.97527504      11.92439842       1.88372397       0.00012378    -609.48009556       0.43832005       0.28937956      -0.15504454
H        5.27922440       5.23351431       3.57806611       0.00120966    -609.36920058      -1.23946993      -0.50333648       2.99380798
H       11.92538738      13.58812714       2.09852362      -0.00079724    -609.34943198      -0.78836668      -0.37876633       0.31038178
H        5.80550337       5.04065323       2.32890344       0.00307043    -609.22645225       1.49271192      -3.76486345      -4.16397527
H        4.99162817       6.36977100       2.43726969       0.00108420    -609.44143597       1.36388329      -0.17029809       1.04469770
H       11.00692654       0.05481787       3.32611918      -0.00019376    -609.45715102       0.51009157       1.10761529      -0.48069220
96
Lattice="12.299111366271973 0.0 0.0 0.397482693195343 12.292691230773926 0.0 0.0 0.0 12.580405235290527" Properties=species:S:1:pos:R:3:initial_charges:R:1:energies:R:1:forces:R:3 original_dataset_index=331 energy=-58452.41411535021 pbc="F F F"
Pb       9.79753685       9.34474468      12.35839272      -0.11109001    -605.46119761       0.32066786       0.58663934      -2.00268206
Pb       2.73000479       3.18624520      12.23759842      -0.14019917    -606.07545906      -0.34093387      -0.45692131       0.30642049
Pb       3.42987132       8.60844135      12.57344913      -0.12933870    -605.94750386       0.20692009       0.96658940       0.44178025
Pb       8.74445629       3.70612979      12.75322819      -0.11583705    -605.58858673      -0.36538169      -0.34187144      -0.08227664
Pb      10.03769493       8.75767708       6.25311995      -0.12558582    -605.81670370       0.16196081       0.43747688      -0.04848502
Pb       2.92281556       3.26400256       6.37782907      -0.14441994    -606.18885595      -0.03455607       0.52051687      -0.17562740
Pb       9.34146118       2.75297594       6.64963055      -0.14603359    -606.22079240      -0.18265537      -0.33783214      -0.42000835
Pb       3.25754380       9.40948868       6.26429176      -0.14199094    -606.04218862       0.07558456      -1.01963794      -0.59552810
I        9.71269417       8.60523129       9.23228645       0.07905626    -608.42911495       0.11369222       0.07282560       0.27677262
I        3.70064282       3.39078712       9.43495655       0.08204403    -608.47572406       0.34544026      -0.00135961      -0.48980036
I        9.54120255       2.64209437       3.36139870       0.08492032    -608.45562229      -0.45015490       0.12455420       0.16308453
I        4.42188549       9.41008663       3.18072534       0.05461478    -608.14167531      -0.60631814      -0.28092015      -0.15492297
I        3.03037405       2.83368731       2.93181705       0.07765666    -608.39590621      -0.53333908      -0.15523583       0.44958869
I        9.41372585       9.57703018       2.85186672       0.13925560    -608.72390628       0.74904523       1.45529560       4.25063930
I        3.66796875       9.03082275       9.36939049       0.07930493    -608.45953136       0.00556116       0.06173589       0.47538800
I        9.09551430       3.35183096       9.63961315       0.08041571    -608.49625751      -0.23644178       0.22212296       0.57093700
I       -0.94362175       1.94798136      12.91400337       0.11244069    -608.79731171       1.50254517       0.25592793      -0.32340934
I        6.66521358       9.13685036      12.35059071       0.06807189    -608.27595665      -0.10194607      -0.30225058      -0.08490811
I       10.00912189       6.40263367       0.17055207       0.09452176    -608.57335997       0.43871202      -0.44041852      -0.01486768
I        4.57930899      12.55499744      -0.18305083       0.11376908    -608.73603723       1.07685423       0.01394980       0.65010416
I       12.78242683       9.96107101       6.93408203       0.08416839    -608.45163622      -0.49210439      -0.05910908      -0.06905368
I        5.98074532       3.01397133       5.96604156       0.08353737    -608.42803961       0.84296598      -0.13378283       0.29183639
I        3.42720699       6.31460333       5.75583410       0.07168812    -608.30807332      -0.49001551      -0.22509692       0.30035040
I        9.07497501      -0.36053494       6.15744400       0.06860622    -608.31524007       0.08192070       0.06104061      -0.17524547
I       12.76599789      10.02896214       0.03864817       0.08492415    -608.50061907       0.42124622       0.08256901      -0.02853068
I        5.44158268       4.02822113       0.48596540       0.06860606    -608.28922554       0.91979567       0.45142581       0.07212054
I        1.95916498       6.17512798      12.00805187       0.08860872    -608.54527900      -0.43414730      -0.39360355       0.14924552
I        8.39140129       0.14945939      12.20049572       0.12931708    -608.88094879      -1.66283184      -0.20913250      -0.13400145
I        0.08124197       2.26606703       6.70372009       0.07829241    -608.41380058      -0.28685762       0.11259401       0.16189814
I        6.53940678       9.43286133       6.74171019       0.12555951    -608.90493614       0.23836037       0.34388176       0.14268447
I        9.89260101       5.72889090       6.12448597       0.08572560    -608.54959624      -0.21322661       0.21189070      -0.26068492
I        4.06028843      12.24522686       6.42034578       0.11623394    -608.72193319       0.19493634       0.97712741       0.11732667
N        6.12647629       6.08976316       4.06030130       0.01169403    -610.27425520       3.35599404      -1.36307997      -0.01649824
N       12.16290665      11.36915016       3.26294732       0.04794410    -610.41662629       0.86037452       1.22591705       0.07692455
N        1.09505904       5.92680120       8.20795441       0.00841012    -610.43022807      -1.12761137       0.84917154       0.50489653
N        5.38412142       0.01471331       9.36399937       0.05100376    -610.47143102      -0.64886534       2.48837347      -0.72841694
N        6.83004522       6.90067244       9.51470852       0.01340320    -610.36443836      -2.38612329       0.58175717       0.84811984
N        0.70214254       0.49599025       9.66495228       0.00854940    -610.51466062      -2.16541503      -0.20802392       1.54296830
N       12.26809788       4.53450871       2.67145014       0.04822361    -610.51437340       0.38371778      -1.56734756       0.37474209
N        6.99889612      11.43883801       2.48809838       0.00436580    -610.70530697       0.73977954      -0.84304386      -0.44131492
C        6.04088831       6.20765638      10.31952286      -0.11505232    -610.05273065       2.41700405       1.12966708      -2.73181207
C       12.06495857      12.14951801       9.53136253      -0.17512982    -609.94756416      -0.89820559       1.29155978      -1.08383453
C        0.39726445       5.74356270       3.42425036      -0.16811499    -610.07229826      -1.73583816      -0.81356228       0.15224321
C        6.41515398       0.20671694       3.35988092      -0.16052066    -609.76325625      -1.22081831       2.12527452       1.05942832
C        6.20624971       4.81539726       3.67729592      -0.11717767    -610.14118627      -3.03391646       0.76876935       1.05104505
C        0.20240559       0.30460066       3.72934127      -0.16537413    -610.00632791      -0.28077837      -0.97547235       0.47096673
C       12.35255814       5.40247679       9.07351971      -0.17319685    -609.98568962      -1.62336712      -1.33070701       1.31926240
C        7.20385790      12.40411472       9.01107883      -0.17323802    -610.08241874       0.15538346      -0.76600983      -1.17869992
H       12.10713673       5.97449636      10.03041840      -0.00096494    -609.34251730       0.68380200      -0.45217278      -0.74320545
H        7.20908308      12.38459969       7.90866804      -0.00150137    -609.37165738       0.50725413       0.29102365       0.27426441
H       11.33081532       5.32532692       8.65281868      -0.00345218    -609.22609089       0.58870377       0.14217174      -0.60657963
H        7.60814667      13.31682777       9.38943577      -0.00447454    -609.29574225       0.35803344       0.69633735       0.11595927
H        0.30427033       4.34552526       9.31104565      -0.00369018    -609.28824012      -0.10055040       0.42432242       0.25983009
H        7.78970766      11.52759552       9.34733486      -0.00385136    -609.41113321      -0.40461087       0.37391509       0.08337301
H        1.23647773       5.43848658       3.99963140      -0.00408481    -609.31475830       0.67882417       0.05358948       0.83515898
H        6.22548532       0.19344687       4.56892347      -0.00200449    -609.10979790       0.23210825      -0.88304636      -2.54015934
H       -0.48977646       6.01661205       4.01631927      -0.00261315    -609.36091671       0.53576473       0.23384654       0.15451525
H        5.59909773       0.84022099       2.87735939       0.00082692    -609.06602338       0.32343576      -0.19332169       1.04009370
H       12.95703125       6.52210045       2.76033282      -0.00300752    -609.30710995       0.36314880       0.88587823      -0.89658437
H        7.30292463       0.79937005       3.28143191      -0.00111111    -609.08130964       0.67696422       0.63245601       0.19547715
H        6.69220591      12.73178673      12.70296478      -0.00144281    -608.05667993      -0.76934211      -0.37860296      -0.24449428
H        5.12945175       0.51243895      10.24805260      -0.00091644    -609.40410815      -0.03331199      -0.39522318      -0.15328200
H        1.80897439       6.12538385       8.90596581       0.00085562    -609.17112272       0.78019916       0.34138430      -0.40655356
H        4.73545694       0.40905085       8.58455849       0.00067485    -609.44216052       1.03755635      -0.40728656       1.04426598
H        0.69894910       6.84770870       7.95603657       0.00088298    -609.22557135       0.76896187      -0.03341544      -0.39260602
H        5.13102579      -0.92900085       9.43398571       0.00111996    -609.44940070      -0.91343501      -2.20672984       0.47969552
H       11.97904968       4.67953110       1.70581341       0.00017423    -609.49308276      -0.37375878       0.34396718      -0.15207610
H        5.84944820      11.11778069       7.02406883      -0.00399093    -608.11144250      -0.08077996      -0.83308639      -0.70116211
H       -0.74608541       3.91749811       3.17273545      -0.00013006    -609.46040528      -0.17149018       0.90107813      -0.41370457
H        6.32268810      10.76257896       2.28220844       0.00329377    -609.17775031      -1.53680834      -0.84228398       0.04942329
H       13.04242706       3.83338308       2.62613630       0.00011445    -609.48097196       0.54220054       0.33126430      -0.15079439
H        7.83803225      11.16136742       2.00683594       0.00201556    -609.12532343       0.24699476       0.71978461       0.35315261
H       -2.30312777       0.83833194      12.86523533       0.00136159    -608.24776549       0.25956962       0.07764678       0.13838723
H        6.58774900       7.86241341       9.13922882       0.00193361    -609.28555713      -0.24555559      -1.16907135       0.61841995
H        8.28010273       6.47748709      15.42910290       0.00923410    -608.93679493       0.07924788      -0.04154175      -0.02297129
H        1.35732615      12.25109673      10.48975372       0.00182594    -609.17223154       1.65440865       0.18387197      -0.22125198
H        1.18527651       0.31653440       8.81036377      -0.00026518    -609.09455256       0.97918994      -0.51155050      -0.20495505
H        7.77406883       6.68149710       9.29825687       0.00298410    -609.20772200       1.29127525      -0.73851803       0.00132749
H        5.04901266       6.52730703      10.39540768      -0.00467901    -608.99320942      -1.52819343       0.57500613       0.47266969
H       11.65686607      -1.18122649       9.74870014      -0.00229212    -609.21890739       0.30205451      -1.39807675       0.19253798
H       21.07365036      -3.51120353       1.58909619      -0.00451033    -607.93953470      -0.71390552      -2.47873396      -2.35721880
H       11.73973942      12.21639919       8.47303295      -0.00364483    -609.23916682      -0.34157182       0.29569145       0.60128614
H        6.36637354       5.25285292      10.65087795      -0.00420004    -609.00350770       0.28171574      -0.69460791       0.44831363
H       11.29868984      12.55490780      10.23051453      -0.00411838    -609.29869423       0.36210956       0.38450883      -0.51584424
H        7.95994043       6.20065594       2.23564076       0.00970419    -608.94060784       0.03576709       0.06713058      -0.01262622
H        1.09950995      -0.06641382       4.20504093      -0.00424430    -609.35673748       0.23141530      -0.03385808       0.52334161
H        5.18897629       4.34570980       3.82706141      -0.00423418    -609.05035591       1.05413139       0.09584875      -1.23048079
H        0.02497689      13.25871277       4.39077568      -0.00404240    -609.33598665      -0.16156145      -0.68011845       0.04744987
H        7.02102232       4.25546932       3.19402862      -0.00647783    -608.87807114       0.05038723       0.53390026       0.68085347
H        0.53475600       0.92679518       2.94885159      -0.00309195    -609.28024790       0.31154247       0.48666404      -1.50907288
H       11.77461433      11.35414982       2.34449720      -0.00105520    -609.41467558      -0.07616165       0.61254849      -1.32706399
H        7.02024651       6.48037386       4.45901823       0.00102577    -609.10089042      -1.13078957       0.17255723      -0.86763287
H       11.38528252      11.16333580       3.82629347       0.00024146    -609.37885729      -1.57380272       0.11206749       1.65758098
H       13.07715416       9.21843147       3.69499683      -0.00360108    -608.25036154      -0.01961584       0.08849945      -0.26265555
H        5.23610163       6.46180487       4.41046667       0.00171161    -609.10672837      -0.20111689      -0.04028881       0.28111167
H       12.28291225      -1.88639939       3.32978940       0.00507880    -609.51837145       1.10298224      -0.83966017       0.40432026
96
Lattice="12.299111366271973 0.0 0.0 0.397482693195343 12.292691230773926 0.0 0.0 0.0 12.580405235290527" Properties=species:S:1:pos:R:3:initial_charges:R:1:energies:R:1:forces:R:3 original_dataset_index=207 energy=-58452.59341943237 pbc="F F F"
Pb      10.11609650       9.90626240      12.22115707      -0.12614587    -605.84646122      -0.71530618      -0.60941805      -0.29253770
Pb       2.46762729       2.72621536      12.25542355      -0.11697803    -605.63606826       0.45881108       0.94718635      -0.47067214
Pb       3.70595169       8.83227634      12.50213814      -0.12501945    -605.86993408       0.13764062      -0.66313723       0.51440926
Pb       8.51862526       3.53304291      12.96768475      -0.12782297    -605.85708158       0.20759901       0.19368773      -0.19730798
Pb       9.48476696       8.73424435       6.10235262      -0.13989928    -606.13538725       0.59711352       0.15321288       0.32179447
Pb       2.84334922       3.34221840       6.04415131      -0.12267498    -605.75490435       0.09439651       0.23807977       0.68724925
Pb       9.46464729       2.62978578       6.76126289      -0.14007501    -606.09851823      -0.48266702       0.17129617      -0.17024783
Pb       3.39221597       9.73902512       6.32048845      -0.11869831    -605.71428815       0.18663704      -0.53854928      -0.44767741
I       10.22273636       8.42119408       9.08433056       0.06058088    -608.24376121      -0.28332977       0.29166089       0.16314335
I        3.62823343       3.33472729       9.51304817       0.07931749    -608.46390238       0.08296237      -0.23678983      -0.46864777
I        9.20937824       2.68049574       3.39648700       0.08023278    -608.43576446       0.08871872      -0.03683780      -0.03713320
I        4.51696539       9.50882626       3.01925492       0.08178516    -608.45603777      -0.33825514      -0.04118943       0.53083584
I        2.27063131       3.29873919       2.99086905       0.11140078    -608.73252007      -0.72219185       0.30048074      -0.03384469
I        9.67941856       9.21354866       2.67850184       0.09733507    -608.59294021      -0.02660006       0.09781906       0.18713838
I        3.52225351       9.49544239       9.53654385       0.11771693    -608.71487584      -0.11810075       0.02960180      -0.40728507
I        9.36338043       3.29024768       9.79610252       0.07916798    -608.42567370       0.00203298      -0.18884303       0.06060353
I       -0.60249084       2.16871810      13.01913071       0.14785768    -608.99025516       1.15899707       0.67555221      -0.78800899
I        6.72731972       8.54647446      12.55127716       0.06957954    -608.38651715       0.14864446      -0.29046760      -0.13218082
I       10.30156994       6.00204325      -0.10249084       0.07440102    -608.40025220      -0.33063942       0.42867331       0.28685437
I        3.97480416      12.11586285       0.04770835       0.13034423    -608.86519491       0.55948503      -0.00270164       0.60403012
I       12.64386082       9.75851727       5.89580154       0.09370232    -608.57209562       0.12981034       0.20456440       0.35785936
I        6.60972643       3.75470829       6.42676544       0.05893045    -608.06155366      -0.51512614      -1.19552928      -1.10027750
I        2.96021128       6.46712923       5.82414818       0.08289918    -608.45812982       0.15010106       0.01697696       0.07005130
I        8.49725819      -0.44782302       6.12553406       0.08440951    -608.52871062       0.05613429       0.06851891      -0.31660781
I       12.97825623      10.19080544       0.25075009       0.10723723    -608.68487787       0.21689491       0.09415480      -0.11807637
I        5.49325228       3.58368349       0.31277168       0.07101171    -608.38685085      -0.07312840       0.29111994       0.17635035
I        1.83547390       5.81738806      12.62914371       0.06968138    -608.32743679       0.37012002       0.17597662      -0.24046230
I        8.28847694       0.37399217      12.80231094       0.10555970    -608.68307127      -0.36835957      -0.62192604      -0.18467495
I        0.09667558       1.99151516       6.41677284       0.09079202    -608.57539015       0.55336296      -0.27436779      -0.06828805
I        6.63091946       8.52237225       7.14201927       0.10161554    -608.58157477      -0.81642381       0.25193434       0.25612866
I       10.50729752       5.59533739       5.89184475       0.09452804    -608.57247769      -0.45399936       0.20125260       0.43641501
I        4.19986534      12.71208763       6.15079260       0.09480454    -608.57934725       0.26603931      -0.44838453       0.32914364
N        6.29379988       6.66293716       4.28745365      -0.01326017    -610.62874113      -1.93103622      -0.64287432       1.20469594
N       12.41662693      11.96641159       3.24940848       0.05241036    -610.48496052      -0.91569878       2.56137627      -1.93334903
N        0.78903490       6.87583065       8.67912960       0.00284899    -610.69150754       0.20058728       0.43398720       1.07656552
N        5.42423296       0.00798029       9.63492489       0.05080540    -610.49577677      -0.11215689       3.04370054       2.11757088
N        7.32273483       5.66917753       8.61582947       0.01949870    -610.32398307       0.66406511       1.40865225       1.96545962
N        0.71641386      -0.10948187       9.61783123       0.01855816    -610.38131933      -1.18067564       0.47076154       3.54590530
N       12.04946804       6.21953869       3.07223439       0.05148200    -610.47625348       0.60163024       0.57053169      -3.87243719
N        6.69982815      12.22629261       3.14596272       0.05174542    -610.41069938       1.62385646       0.80070377      -0.17093027
C        6.08240032       6.18238783       8.39512634      -0.11250503    -609.94821299       2.65588188      -1.20019529       0.71004086
C       11.94574261      12.38398361       9.67911625      -0.17153099    -609.81590961       0.47659102      -1.29516875       0.70778054
C        0.65826386       7.40591002       3.07769585      -0.16542080    -610.07362280       0.99604322      -1.50463546       0.09896717
C        5.56516075       1.23454392       3.13763881      -0.17677921    -610.00044017       0.56590334       0.25470288       0.16898696
C        7.30164671       6.10455608       3.60526252      -0.26283333    -609.41449877      -0.10802264      -2.08268381      -1.72363063
C        1.18902314      -0.19974945       3.40241718      -0.16513623    -610.09330456      -0.78080422      -1.73791832       0.34820829
C       12.81357193       5.46217394       8.93346405      -0.16011204    -609.86088703       0.18550687      -1.27749433      -0.78854656
C        7.20826340      12.48930550       9.12873268      -0.16326790    -610.05572802      -0.97471767       0.75242628       1.10806518
H       13.49634743       4.77755976       9.58537483      -0.00195799    -609.18167525      -0.59527904       1.47107901      -0.70960935
H        7.12670040      13.04402828       8.23088646      -0.00465795    -609.29178772       0.23410117       0.14561378      -1.24622488
H       11.78357601       5.29170895       9.29336166      -0.00236877    -609.18067182       0.12818215       0.46418083       0.39773277
H        7.77565193      13.07526875       9.84513950      -0.00376348    -609.36857195      -0.04237398       0.28804932       0.28335889
H        0.42654672       4.89972687       7.94994211      -0.00341604    -609.23387376       0.49220298       0.72566707       0.60667393
H        7.63067293      11.52456093       9.11038208      -0.00398752    -609.32912645       0.76146433      -1.17326112      -0.69308261
H        0.26959741       8.18310165       3.67554402      -0.00454961    -609.30261711      -0.75839252       0.77343570       0.76542335
H        5.05024481       1.39273036       4.07216215      -0.00315130    -609.29772082      -0.03209421      -0.26129485       0.58040149
H        0.67635036       7.70446491       2.04812217      -0.00350733    -609.37413082       0.39359912       0.32856436      -0.57736994
H        4.75024796       1.17580032       2.37238193       0.00364947    -609.34072619       0.44918271       0.21159253       0.03878800
H       13.95413589       7.14158630       3.48608732      -0.00348779    -609.36736205      -0.44560292      -0.03780890      -0.40683353
H        6.26123810       2.07856512       2.98968887      -0.00525908    -609.36696853      -0.23435325      -0.32693276      -0.36465204
H        4.90903425      12.38992882      14.33212471      -0.00507579    -607.99013033      -1.07531542      -0.26703355      -1.48977332
H        5.44313002      -0.07029226      10.68335247       0.00133664    -609.49512395      -0.21214132      -0.13347350      -0.63728442
H        1.47794044       7.17892313       7.98251200       0.00064393    -609.20550931      -0.15110914      -0.88914560       0.19674246
H        4.73310041       0.82147384       9.45987797       0.00206255    -609.51162481       1.08696680      -0.57690945       0.07857447
H        0.88730747       7.51327610       9.50002480       0.00127500    -609.25726931      -0.22221130      -1.02481315      -0.62184444
H        4.93095541      -0.76363868       9.29210472       0.00303550    -609.41338175      -0.87713674      -2.12029873      -0.88646957
H       12.42496967       5.41272306       2.48056316       0.00178908    -609.49160198       0.04340781       0.72115852       0.94602522
H        7.53619814      12.32271481       3.85771990       0.00168563    -609.40007516      -1.21901092      -0.55816627      -1.12005668
H       -1.04070246       6.52378511       2.46501637       0.00110107    -609.45400395      -0.18106292      -0.14824786       0.08967744
H        7.06694221      12.02315807       2.13123775       0.00060432    -609.45408042      -0.12789826       0.23701241       1.81154867
H       11.62164593       5.89285803       3.89959979       0.00252105    -609.34088456      -0.36998914      -0.63607269       2.17449279
H        6.05371809      11.45477009       3.41033006       0.00266706    -609.43447789       0.19929673      -0.18357666       0.08725023
H       -1.74228537       1.34309542      13.74845791       0.00017402    -608.03647505      -1.10242339      -0.77126096       0.68852185
H        7.89861679       5.67577696       9.52189350       0.00171670    -609.18210672      -1.47675234       0.69393578      -1.24443992
H        7.94017553       6.92952919      15.67487431       0.01082762    -609.20321339       1.21198725       1.67337316      -1.34537934
H        1.26322114      11.48538113      10.37809944       0.00085916    -609.17903391       0.81444551       0.51689118      -1.06839780
H        1.09600115      -0.40372807       8.76804733       0.00604681    -608.97076751      -0.10686523      -1.00968769      -1.84388380
H        8.01268387       5.59288025       7.84594917       0.00063808    -609.09522222      -0.93852578      -0.40972785       0.13659732
H        5.45492744       6.54449654       9.17997932      -0.00455461    -608.89485844      -0.01790688       0.23605937       0.84411130
H       11.21348953       0.24742199       8.70493698      -0.00264402    -609.08742168      -0.88945181       0.08560890      -1.85363977
H       14.80471039      -0.23688389       9.26355553       0.00192764    -607.97115981       0.90121891       0.15823722       0.35692141
H       11.59982395      13.27834606      10.23613930      -0.00235870    -609.15345630       0.38127331      -0.68706835       0.32209173
H        5.60852289       5.61196709       7.62529659      -0.00098816    -608.66729380      -0.75515365       0.62314588      -1.19942507
H       11.58963490      11.33468723       9.99994469      -0.00004344    -609.28140170      -0.46767369       1.65393404      -0.04867972
H        7.40949059       6.85536909       2.34781814       0.00926245    -608.69660501       0.55292715       0.16335322       0.21516459
H        1.75550473      -1.03491402       3.00169015      -0.00388014    -609.35642715      -0.32782187      -0.54883745      -0.07684341
H        7.09736252       5.31293297       2.86571527      -0.00299765    -608.92259505       0.05324736      -0.42908037       0.48447032
H        1.71791434      12.14886665       4.46341419      -0.00431454    -609.38667124       0.56009616       0.35507295       0.61751956
H        8.23004246       5.87385798       4.19361448      -0.00769914    -608.85963024      -0.14642449      -0.02778429      -0.52418809
H        1.48345435       0.64722067       2.87814355      -0.00387260    -609.27345690       0.56145241       1.77020981      -0.66839965
H       11.98037243      12.89065838       3.51823878       0.00088427    -609.49733131       0.34700346      -0.70215017       0.09294223
H        6.67759085       6.65254974       5.24038410      -0.00135506    -609.15178232      -1.65819312       0.44513043       0.21663048
H       11.96907330      11.28391552       3.81894779       0.00130879    -609.41449607      -0.34750131      -1.41047396       1.05882442
H       12.44385529       3.55718279       2.70082593      -0.00490157    -608.00320683       0.88493252      -0.16526189       0.05999480
H        5.31543350       6.25627327       4.11304569       0.00260822    -609.09474776       1.88502095       0.86317241       0.80088210
H       11.67444420      -0.45270157       2.26065302       0.00208681    -609.48474914       0.64832899      -0.34559164       0.60368669
96
Lattice="12.299111366271973 0.0 0.0 0.397482693195343 12.292691230773926 0.0 0.0 0.0 12.580405235290527" Properties=species:S:1:pos:R:3:initial_charges:R:1:energies:R:1:forces:R:3 original_dataset_index=210 energy=-58453.53033346079 pbc="F F F"
Pb      10.11666393       9.89485931      12.20819378      -0.12892427    -605.91391026      -0.61058722      -0.59395105      -0.28670468
Pb       2.45401573       2.72743869      12.25704861      -0.12746421    -605.89100051       0.28108755       1.22355655      -0.17141942
Pb       3.69926119       8.83690739      12.50667572      -0.11496971    -605.63023051      -0.03229686      -0.82811207       0.33332730
Pb       8.52554893       3.54093480      12.95411015      -0.13043854    -605.89532511       0.16390364       0.51033813      -0.34294702
Pb       9.49587631       8.72919273       6.11002922      -0.14304042    -606.19270797       0.55753662       0.17453919       0.29696212
Pb       2.84784079       3.36065960       6.04795218      -0.13515992    -606.01413364      -0.06725701       0.03234996       0.26287801
Pb       9.45439911       2.64024162       6.75710011      -0.14169851    -606.12037446      -0.35016565       0.04646882       0.00280025
Pb       3.39738703       9.71849442       6.29827070      -0.11628749    -605.65059683       0.07347831      -0.17968714      -0.46696484
I       10.21080017       8.43011570       9.08635044       0.06262361    -608.27016146      -0.27236504       0.27564727       0.17177582
I        3.63206172       3.34000301       9.49489403       0.07487029    -608.43589132       0.09838950      -0.22277760      -0.40770598
I        9.22473431       2.66972733       3.42433095       0.09575252    -608.56846990       0.83404885       0.27858165      -0.33919775
I        4.50651360       9.52210617       3.01886606       0.09837019    -608.60178489      -0.17140326       0.19803074       0.50886556
I        2.29047012       3.29021382       3.00438333       0.07743850    -608.41791123       0.12310473       0.13460330       0.12846945
I        9.67666817       9.21739483       2.68363571       0.09731896    -608.58785393       0.02621826       0.17724722       0.24219627
I        3.52946734       9.48471260       9.56613636       0.12620993    -608.82913980      -0.08429762      -0.08283722      -0.11293072
I        9.35623264       3.29647470       9.81471062       0.08107850    -608.43824270      -0.04305470      -0.10971288       0.11417573
I       -0.59356558       2.16584039      13.01834297       0.12662892    -608.91314024      -0.41734354      -0.44679465       0.26005460
I        6.73111439       8.55377483      12.55493927       0.06268629    -608.28727129       0.05964498      -0.06448516      -0.39377263
I       10.30270004       6.00637770      -0.09614037       0.06610672    -608.29768318      -0.40581570       0.37725545       0.21846287
I        3.98943377      12.12503624       0.04036736       0.14997981    -609.04559642       0.78246685      -0.46243529       0.90954509
I       12.63309956       9.76078796       5.90237856       0.09698433    -608.60520377       0.15966566       0.17259443       0.33031609
I        6.61259556       3.72813678       6.41293907       0.04803137    -607.92289408      -0.68178310      -1.11589014      -1.00963959
I        2.97196007       6.45042276       5.82654285       0.08725697    -608.49320373       0.11864191       0.27470805       0.10105200
I        8.51737309      -0.45501024       6.12166595       0.07939458    -608.47393754       0.05602132       0.10734890      -0.36011086
I       12.98324013      10.18752384       0.25417575       0.10009675    -608.62761252       0.08393176       0.06216001       0.00068503
I        5.50763750       3.59143281       0.32657778       0.06609157    -608.33618199      -0.04445201       0.29117365       0.04287433
I        1.80390549       5.83508492      12.61711788       0.06523028    -608.27518400       0.50248382       0.12019556      -0.27714088
I        8.27105427       0.36632651      12.80732155       0.11319478    -608.73785875      -0.11365663      -0.51188207      -0.10796865
I        0.09378333       1.99784195       6.41033983       0.08038129    -608.47806686       0.49866685      -0.22941800      -0.04668611
I        6.61538410       8.54069519       7.13379049       0.10135067    -608.55596558      -0.47493497       0.76763632       0.33769906
I       10.49794483       5.59404707       5.88382387       0.09392427    -608.56403079      -0.40192835       0.14827810       0.71796283
I        4.21128225      12.71898651       6.15079927       0.09274545    -608.54756529       0.16757522      -0.61309701       0.52016790
N        6.31876755       6.63718843       4.31547976      -0.00095795    -610.66487411       0.01454730      -0.08170007       2.75319166
N       12.39324474      11.97960186       3.27081347       0.04945426    -610.45559938      -0.21088320      -1.11871539       1.74764335
N        0.79644263       6.88462734       8.68487930       0.00593555    -610.61712765       0.67510691      -2.13852680      -1.23919702
N        5.41858196      -0.01490386       9.63651180       0.04992483    -610.45861026      -1.32834570      -0.42578392      -0.84937521
N        7.31035185       5.59796381       8.52536297       0.01627513    -610.35441245      -1.40521580       1.49743345       1.38103784
N        0.72872692      -0.09916349       9.65735054       0.01218216    -610.39493111       0.29930637      -2.40609701      -1.38887226
N       12.05171680       6.17330885       3.10925174       0.05034271    -610.44396793      -0.55690306       1.09413409       0.89624567
N        6.67684078      12.24145985       3.10879064       0.05392383    -610.50092982      -1.18665539      -0.75232253       1.83919942
C        6.13240242       6.23313475       8.42653751      -0.11149938    -609.89361457      -1.24296285      -0.59250411      -1.65042207
C       11.97310162      12.39948463       9.68093204      -0.16867132    -609.93506819      -1.60018068       0.06198429      -2.61188760
C        0.65595770       7.36784792       3.05824566      -0.16659769    -610.08404171      -0.95526787       0.82212625       0.69690458
C        5.54842997       1.22368872       3.16856265      -0.17277010    -610.10630960       0.77267305       0.91535913       0.42641123
C        7.31742620       6.05383968       3.62739778      -0.18572778    -609.56228515      -2.16039356      -1.26093396       0.10495404
C        1.16151178      -0.21959336       3.40237617      -0.16546683    -610.13815296       1.15842694       1.33485775      -0.10292765
C       12.85232544       5.46378136       8.96581745      -0.16719197    -609.95441335      -2.43565269       1.50504806      -0.53354663
C        7.15078974      12.49992466       9.08529282      -0.16265436    -610.08674699       1.50591771      -0.72795448      -1.23484377
H       13.31908035       4.82250309       9.69148445      -0.00308647    -609.12941426       1.36231611       0.05785679       0.41521014
H        7.07157564      13.05615044       8.10512733      -0.00380604    -609.38172047       0.07384044      -0.68008143       0.90835809
H       11.80837536       5.49408293       9.33325100      -0.00099096    -609.26135185      -0.05841806      -0.31270016      -0.01868225
H        7.76952600      13.07921505       9.78206825      -0.00386470    -609.35606946      -0.23094065       0.10867515      -0.02949522
H        0.46124110       5.02926207       8.00470161      -0.00290568    -609.19390480       0.19407181      -1.21035711      -1.00600819
H        7.65577173      11.47796726       8.94941998      -0.00309578    -609.42533940      -0.70245523       1.35243517      -0.04283128
H        0.27387983       8.13917446       3.78125882      -0.00384230    -609.38125791       0.08191606      -0.60013568      -0.73244020
H        5.09366083       1.40126073       4.14471626      -0.00434466    -609.32474868       0.29977717      -0.27906297       0.04614490
H        0.66903818       7.77402830       2.02713060      -0.00492467    -609.39453156       0.07351285      -0.30744838       0.50267350
H        4.76245642       1.17997360       2.44662356      -0.00262051    -609.34116817      -0.47040629       0.32351330      -0.60594100
H       13.91383934       7.09681034       3.44037914      -0.00350822    -609.29673370       0.89881517      -0.35701771      -0.07639916
H        6.26971102       2.03445888       2.96165991      -0.00461230    -609.41482693      -0.35393219      -0.27819475      -0.08033637
H        4.68780565      11.69257545      14.24307632      -0.00547917    -608.07343904      -0.71686350      -0.29200310      -0.91513385
H        5.45877552      -0.14187151      10.64623737       0.00167485    -609.43210084      -0.13316207      -0.55689790       0.39329562
H        1.54361510       7.09218121       8.00816059      -0.00042502    -609.09103332      -0.14391984      -0.00087367       0.92706753
H        4.80067968       0.80666900       9.50596237       0.00177386    -609.48793173       0.09079026       0.46338948      -0.04280773
H        0.70642102       7.34814739       9.53007698       0.00065355    -609.12325159       0.46198158       1.95126137       1.53189063
H        4.87061977      -0.80398387       9.13543892       0.00198177    -609.45541894       0.85069218       0.88698478       1.04868712
H       12.45886612       5.40154743       2.61971545       0.00185843    -609.45097626       0.56079626      -1.07317480      -0.78604732
H        7.42569351      12.15370274       3.79891562       0.00171912    -609.44630450       0.81947204       0.32520728       0.17926227
H       -1.07956326       6.46954107       2.58246589       0.00040733    -609.45465876      -0.37047473      -0.44450062      -0.07443883
H        6.98118687      12.05567646       2.17680883       0.00226077    -609.40043021       1.01064387      -0.19783209      -1.17952093
H       11.70177746       5.80121803       4.09647751       0.00099281    -609.42768163       0.70629395       0.95694759      -1.29526900
H        6.05995274      11.43958378       3.38143706       0.00511120    -609.46752927      -0.11537431       0.08482500      -0.24610096
H       -1.98388231       1.18914843      13.62441444       0.00045417    -608.09970283       0.34697883       0.28767309      -0.39594246
H        7.76901102       5.24471903       9.34039307       0.00138516    -609.09478927      -0.22944230       0.13175951       1.66164592
H        8.00989056       7.37688828      15.52734566       0.01003736    -608.94904185       0.74015195       0.10228744      -0.12885267
H        1.19043064      11.29999638      10.17612267       0.00178521    -609.05534895       0.53460198       0.66621579       1.02549852
H        0.93688881      -0.67075557       8.76115608       0.00135472    -609.10639180      -0.32895973       1.84905185       0.65502234
H        8.05494595       5.67955875       7.87299919       0.00055321    -609.04252835       0.07362562      -0.01831323      -1.68231933
H        5.39563322       6.55003595       9.21525574      -0.00294388    -608.87047702       1.40412471      -0.65460731       0.19535691
H       11.08676910       0.25606716       8.63589478      -0.00214245    -609.27252845       1.09797159      -0.05061864       1.05267614
H       15.32098770      -0.94155914       8.78070927      -0.00552753    -608.06599493      -0.04238422      -0.27844912      -0.33066674
H       11.61511993      13.28993225      10.20028782      -0.00496593    -609.17832755       0.30096333      -0.22839631       0.61932777
H        5.50248909       6.05232191       7.46417379      -0.00233418    -608.70590319       1.39529081       0.34942117       1.23083300
H       11.47775745      11.45538330       9.93102551      -0.00167985    -609.26183244      -0.46417158       0.09053963       0.75575182
H        7.56038857       7.03211641       2.36882138       0.01122981    -608.95560614       0.16410318      -0.21944384      -0.42800979
H        1.70291603      -1.06970274       2.97308373      -0.00423107    -609.35535153      -0.55510645      -0.24799622       0.03985728
H        6.86141109       5.40172768       2.85908079      -0.00555818    -608.88824106       0.42603815       0.05090596      -0.12351639
H        1.81398702      12.16226482       4.48139906      -0.00410103    -609.40178346      -0.16465727       0.13552274      -0.67837901
H        8.18500328       5.53765965       4.09650612      -0.00427949    -608.84257696       0.36249663       1.23311082      -0.31473655
H        1.51404643       0.70623332       2.83266258      -0.00360607    -609.41201850      -0.52331658      -0.98967296       0.85053168
H       11.93762016      12.83839512       3.61444831       0.00012481    -609.45321611       0.02081631       0.05994440      -0.35752120
H        6.51216841       7.05544567       5.30844498       0.00386484    -609.13071073      -0.14724675      -0.81057660      -2.15435695
H       12.02203083      11.18413830       3.90763450       0.00097086    -609.45783943       0.54197516       0.81027654      -0.62639771
H       11.17986870       3.52084136       2.54078603      -0.00636404    -607.98005687      -0.80511518      -0.52132339       0.26336231
H        5.43606329       6.09752560       4.37375736       0.00164454    -609.08092681       0.35900985       0.67475801      -0.44818022
H       11.76437950      -0.56396693       2.32159019       0.00113747    -609.41178376      -0.45576281       0.01907685      -0.91371866
96
Lattice="12.299111366271973 0.0 0.0 0.397482693195343 12.292691230773926 0.0 0.0 0.0 12.580405235290527" Properties=species:S:1:pos:R:3:initial_charges:R:1:energies:R:1:forces:R:3 original_dataset_index=338 energy=-58453.01779254342 pbc="F F F"
Pb       9.79102707       9.35044670      12.36612034      -0.13417687    -605.98206966      -0.32387673      -0.15198815       0.28470457
Pb       2.73447084       3.18837214      12.24393463      -0.13512175    -605.97868644      -0.21857997      -0.42457797       0.23060102
Pb       3.43141389       8.61941242      12.56398869      -0.12814651    -605.91468736       0.25816449       0.93473908       0.36483298
Pb       8.74740410       3.69614601      12.75882912      -0.11511748    -605.53645661      -0.61880681      -0.07785955      -0.02248232
Pb      10.05271912       8.77644920       6.24592924      -0.16707236    -606.57683943       0.30367360       0.61164345      -1.34531368
Pb       2.92227530       3.26205540       6.37797070      -0.13892581    -606.09011760      -0.05136626       0.49630541      -0.11923787
Pb       9.34069538       2.74224734       6.63492584      -0.14419167    -606.17675461      -0.28143818      -0.12218346      -0.39625847
Pb       3.25569081       9.40070724       6.27462339      -0.13235101    -605.87750302      -0.13140311      -1.08769338      -0.18552040
I        9.70715141       8.60384083       9.22957039       0.08201275    -608.47172613       0.01466171       0.01455670       0.69393578
I        3.71502614       3.39650369       9.44006920       0.08462011    -608.50376353       0.31014343      -0.01485762      -0.48575072
I        9.51155090       2.66061902       3.34233451       0.08627602    -608.47757124      -0.15053780       0.17044275       0.10230188
I        4.42743206       9.38117886       3.16960263       0.08433392    -608.43186241      -0.35798142       0.39306341      -0.48572258
I        3.02175164       2.81374598       2.93709254       0.08579803    -608.46837033      -0.27320428      -0.13644339       0.44187478
I        9.42403126       9.58741283       2.91176939       0.07307175    -608.21993675       0.08738665      -0.74483667      -0.57358358
I        3.66967344       9.02741051       9.36621857       0.08857542    -608.55876216       0.00647875       0.07412906       0.35162330
I        9.08206272       3.36598969       9.65219116       0.07979003    -608.48762031      -0.24212652       0.19241331       0.45442811
I       -0.91833556       1.96411276      12.89027309       0.13519332    -608.90982973       2.63458605       0.68532865      -0.45698258
I        6.65037727       9.14091587      12.33126068       0.05969544    -608.19862883      -0.04910726      -0.36762489      -0.21650975
I       10.01604366       6.32000494       0.13866881       0.09480959    -608.59112174       0.64444907      -0.16093130      -0.16680726
I        4.58485889      12.56107140      -0.18172763       0.12445748    -608.75589018       0.08411964      -0.56623232       1.12198661
I       12.76071644       9.96316719       7.00678921       0.08298418    -608.42231919       0.57639707       0.28475124       0.63555167
I        5.99584532       3.01627445       5.97985601       0.08528510    -608.44236296       0.70006879      -0.09035151       0.19494661
I        3.42859197       6.28657246       5.75197172       0.08730666    -608.48136321      -0.37031754      -0.12275523       0.36745098
I        9.08443737      -0.35426289       6.16910791       0.07745209    -608.40424193       0.10229547       0.20612986      -0.10471278
I       12.77031803      10.02860069       0.02833864       0.07872511    -608.44788154       0.57581377       0.10473622      -0.05327248
I        5.47095823       4.04731655       0.47873506       0.07419337    -608.35983835       0.80253082       0.29581240       0.00344879
I        1.96831977       6.15855312      12.00539780       0.08759557    -608.53606931      -0.45568401      -0.28799376       0.11137524
I        8.38228798       0.15531813      12.18108845       0.15214607    -609.04508279      -0.46463518       0.06805480      -0.45628684
I        0.05453702       2.28464055       6.73472643       0.08096927    -608.44730465      -0.06458888       0.03778738       0.03441229
I        6.56339788       9.43439198       6.72522449       0.10506891    -608.73041022      -0.07701492       0.21487571      -0.51118221
I        9.86886597       5.73849964       6.12252474       0.08329780    -608.53235887      -0.20769633      -0.04856693      -0.31504148
I        4.05202436      12.24937057       6.42532206       0.12460117    -608.84222648      -0.03162892       0.93400312      -0.39812112
N        6.19014883       6.07946920       4.06514740       0.00348004    -610.37331090      -1.67657872       0.40425940       1.27182762
N       12.23853683      11.42054081       3.18456554       0.05161217    -610.25463814      -1.79020907      -0.02473760       2.38012963
N        1.03967559       5.87770700       8.21725082       0.00560659    -610.71071105       0.31699988      -0.76191644       0.07694821
N        5.37182903      -0.01989647       9.31889153       0.04769905    -610.50598695       0.37877960      -1.61097301       1.18769418
N        6.79002953       6.88088846       9.45234394       0.01380878    -610.20704853       1.65209030      -1.23997723      -0.07416511
N        0.69489330       0.45672187       9.76208687       0.00786154    -610.64995968       1.41184984       0.10709422      -1.15720225
N       12.40254974       4.53295565       2.64592385       0.04652638    -610.50475455      -0.94989068       1.84567336       1.01566797
N        6.97034931      11.44689465       2.45281792       0.00552023    -610.60613333       0.44406110       4.72016753       0.49971984
C        6.00495768       6.13365984      10.12282467      -0.12288347    -610.12253911      -0.45463859       0.16439850       1.25383206
C       12.05159664      12.20776653       9.53575516      -0.16203645    -609.94742744       0.07247731       0.28024430       0.60710619
C        0.44411418       5.80441284       3.45994711      -0.16537561    -610.12446134       0.43960207      -0.23475642      -0.66419650
C        6.33921909       0.29240093       3.36868834      -0.17260021    -609.95305105      -0.46828475       0.81629384       0.65283301
C        6.20186520       4.83612204       3.73415136      -0.12179963    -610.22988857       2.16145357      -0.51552155      -1.16090404
C        0.32188833       0.28935280       3.68615174      -0.17138278    -610.08139804       0.50717712      -0.17531091      -0.07436127
C       12.26430511       5.32237530       9.08853054      -0.16059199    -609.93337638       0.65357189       1.57139602      -1.14314071
C        7.21150398      12.40024471       8.89329720      -0.16524395    -610.10081204      -0.33601073       0.11069659       0.83147854
H       11.97216988       6.05516672       9.85597134      -0.00042741    -609.23227622      -0.32925652      -0.18464123       0.03491634
H        7.30811119      12.58569813       7.83185863      -0.00480675    -609.34243127      -0.26727419      -0.09546523      -0.28419327
H       11.46151638       5.14345074       8.36227131      -0.00334862    -609.21764614      -0.26892297      -0.09532748       0.57512252
H        7.67035675      13.23166752       9.43770885      -0.00211758    -609.36286509      -0.15027654       0.04002008      -0.11566165
H        0.24717887       4.39926672       9.55718422      -0.00504182    -609.22843213       0.35212398      -0.63448166       0.13801920
H        7.71120405      11.48687363       9.17625523      -0.00315058    -609.38528449       0.33567919      -0.38410920      -0.04759390
H        1.32954431       5.65281010       4.09270382      -0.00314794    -609.35383600      -0.22064066      -0.18607280      -0.21902023
H        6.09133101      -0.04976194       4.43181562      -0.00117434    -609.31591478       0.45452545       0.30515986      -1.21312156
H       -0.40562093       6.05879068       4.07646275      -0.00283323    -609.34175462      -0.31884939       0.01954432       0.16877070
H        5.45755863       0.98114854       3.07520676      -0.00086821    -609.29068823       1.21169259      -0.84927334       0.11705298
H       12.94954205       6.62636995       2.74445963      -0.00214171    -609.42269634      -0.07020990      -0.44620956       0.26231783
H        7.24338770       0.94988769       3.46028519      -0.00366709    -609.22092604      -0.67601344      -0.54657737      -0.16682040
H        7.12314320      12.62857151      12.37527084      -0.00065779    -608.09132625      -0.47139129      -0.10538905       0.19190881
H        5.14712286       0.51993358      10.18556499      -0.00019693    -609.43999886       0.10571435      -0.18925818      -0.33973440
H        1.97860181       5.99439859       8.60889149       0.00088671    -609.24213257      -0.53593391      -0.02286219       0.27817584
H        4.76085281       0.29915455       8.58890533      -0.00027304    -609.43528178      -0.81723516       0.45080187      -0.89530388
H        0.76993179       6.75021410       7.77533150       0.00009504    -609.24201807      -0.07257808       0.05064332       0.05966337
H        5.04582357      -1.04066896       9.53193951      -0.00066218    -609.52333442       0.64202730       1.49295861      -0.39825720
H       12.08436203       4.93346977       1.74853837      -0.00031249    -609.45596090       0.25722288      -0.78626057      -0.18019808
H        5.52505636      10.95521927       6.14028883      -0.00209875    -608.14659586       0.49028234      -0.31703592       0.45149376
H       -0.73405898       4.04970407       3.07245111      -0.00018706    -609.47222257       0.36935494       0.03252851      -0.22779653
H        6.21713400      10.87778854       2.70192289       0.00211489    -608.83300744       0.03544985      -2.86537696      -0.30781241
H       13.19810009       3.86470914       2.61376095      -0.00047629    -609.39665834       0.28487530       0.01932748      -0.28542250
H        7.94761086      11.42514229       2.09502864      -0.00007328    -608.74651425      -1.57110852      -1.13839297       0.57840205
H       -2.29195237       1.18334532      13.03669643       0.00168223    -608.06433574      -1.02217251      -0.76868119       0.34436681
H        6.36508274       7.66573095       8.97663879       0.00392084    -609.19476706       0.28711269       0.69804105      -0.46355798
H        8.37905312       6.22371244      15.27945995       0.01170744    -608.91409163       0.06705522       0.07979006       0.04104319
H        1.70101190      12.27250767      10.43836689       0.00170924    -609.23470785      -0.82970236      -0.25168643       0.14158585
H        1.26939714       0.39033228       8.89356804       0.00119981    -609.26603154      -0.66535952       0.17718351       0.52222959
H        7.85763693       6.68348503       9.43173218       0.00335423    -609.16577468      -1.75845623       0.74163489      -0.23827249
H        4.95012522       6.46858597      10.23884106      -0.00357735    -609.15562649       0.49335749      -0.56517693      -0.25879309
H       11.58315849      -1.18097675       9.56124401      -0.00143785    -609.19820719      -0.09062482       0.02542440      -0.01415285
H       16.98389626      -0.98386294       1.60148084      -0.00540753    -607.86980319      -0.44364333       0.14978965      -0.67110472
H       11.62336349      12.58229637       8.58833790      -0.00381395    -609.26800112       0.33211145      -0.18478801       0.20693389
H        6.43683767       5.35675764      10.76960087      -0.00308348    -609.06874342      -0.35091948      -0.07456130      -0.46051566
H       11.43275166      12.63622475      10.33413410      -0.00235333    -609.21741407      -0.35346811      -0.22827908       0.05757313
H        7.99394274       5.93260908       2.12768054       0.01135813    -608.91705560      -0.07798031       0.16909055       0.09721327
H        1.20385337       0.01790656       4.26964903      -0.00306055    -609.32246708       0.02081633      -0.32106651      -0.17710955
H        5.35143805       4.19631338       3.58732486      -0.00612459    -608.86038483      -0.51450835      -0.05022997       0.52026882
H        0.04486738      13.09473038       4.35339212      -0.00333759    -609.35605332       0.11887378       0.82399782      -0.01983024
H        7.19303417       4.53188086       3.33096671      -0.00458155    -609.00667579      -0.85861212      -0.44744358      -0.14453440
H        0.62801343       0.86781186       2.80131340      -0.00332861    -609.37469777      -0.00568626       0.16850316       0.50952813
H       11.94698238      11.71867943       2.21816969      -0.00249407    -609.17924118       0.00554563      -1.70861879       0.79280024
H        6.87246799       6.73151064       3.68857074      -0.00056420    -608.99232408       0.43053103      -0.02148350       0.65857180
H       11.38071060      11.37216759       3.84176135       0.00214414    -609.22208343       0.00452827       1.06206632      -1.38231131
H       11.64939880       9.35016823       4.65670109      -0.00795304    -608.02563691      -0.00766581      -0.25913599      -0.20766533
H        5.40617466       6.32392550       4.75918722       0.00215897    -609.08072085       0.63445295       0.59997545      -1.26944740
H       11.93457127      -1.90045428       3.68830514       0.00309303    -609.08460558       0.72192935      -0.14950400      -1.36368320
96
Lattice="12.299111366271973 0.0 0.0 0.397482693195343 12.292691230773926 0.0 0.0 0.0 12.580405235290527" Properties=species:S:1:pos:R:3:initial_charges:R:1:energies:R:1:forces:R:3 original_dataset_index=84 energy=-58459.18711091068 pbc="F F F"
Pb       9.77086163       9.33719921      12.32627296      -0.13088585    -605.86842688       0.36398278       0.61100252       0.20607217
Pb       2.55298781       2.65246677      12.19335365      -0.12087873    -605.74330072       0.69786954       0.20198040       0.21705403
Pb       3.92830300       8.59167576      12.68545437      -0.12685084    -605.76489837      -0.30176357       1.38419179      -0.44516968
Pb       8.95265579       3.55525970      12.94232845      -0.13648462    -606.02105626      -0.21946887      -0.56963543      -0.22568156
Pb       9.59849453       8.85344982       6.24748898      -0.13752759    -606.02203953      -0.14262063       0.76017856      -0.03456736
Pb       2.95166826       3.19326615       6.14833832      -0.14159741    -606.18475075      -0.00033935      -0.30797579      -0.27362811
Pb       9.40896893       2.65831304       6.25609589      -0.10760991    -605.37723075      -0.09188826      -0.18649597       1.49323354
Pb       3.40154552       9.43568325       6.18631935      -0.13237874    -606.00452250      -0.03960992       0.36441781       0.36979601
I       10.40910721       8.51766300       9.29903793       0.07791084    -608.43167942      -0.18851527      -0.24930690      -0.04832978
I        3.51313949       2.82507968       9.08115005       0.09289397    -608.51244500       0.09842147      -0.02700392       1.21931395
I        9.28012848       2.90089417       3.48724508       0.10128088    -608.64257079      -0.07637354       0.21511488      -1.31044107
I        4.46173429       8.99895763       3.22350740       0.10016467    -608.57196728      -0.48061313       0.25004758       0.02684700
I        2.51405764       3.74572563       3.02047753       0.08168199    -608.46252316       0.08279241      -0.06782364      -0.03780203
I        9.75663948       9.55143833       3.13438535       0.08266509    -608.45806470      -0.36321675       0.09377954      -0.32608534
I        2.84777427       9.81310558       9.92227554       0.05844509    -608.22667813       0.64560993      -0.28730426      -0.86815861
I        9.52565861       2.96673131       9.80869102       0.10814034    -608.62581231      -0.76164563       0.65374103      -0.18665044
I       -0.33584842       2.27770901      12.62661362       0.09394211    -608.48170684       0.14979413       0.21290610      -0.36846819
I        6.83285332       8.54690933      12.32993603       0.09133474    -608.53515960      -0.73502369      -0.29712110      -0.02309872
I        9.73028564       6.30691576      -0.32291985       0.07511622    -608.43039747       0.65700671      -0.05557354       0.25558364
I        4.06745195      12.04696751       0.22001611       0.10326417    -608.63356963      -0.30032602       0.32666976       0.03288471
I       12.41367817      10.17811966       6.04407501       0.07608762    -608.39954447      -0.02132392      -0.50973892      -0.15129705
I        6.18303299       4.18936872       6.38869619       0.08926123    -608.46395162       0.04222690      -0.29418854      -0.85641381
I        2.70053267       6.50257826       6.09518194       0.09162552    -608.56456258      -0.24021767      -0.13768828       0.09799539
I        7.71706438       0.18307976       6.50248909       0.06733607    -608.23669052       1.17704884      -0.09619174      -0.36667418
I       12.54984570      10.28401375      -0.42328966       0.07701845    -608.43314206       0.12033491       0.20805565       0.76696628
I        5.87389517       3.72470331       0.12326675       0.08576316    -608.52677447       0.02261003       0.04519390       0.02280671
I        2.39183784       6.07886934      12.80180645       0.09033778    -608.49824702      -0.11449534      -0.87627945      -0.94318626
I        8.41085148       0.44012013      12.67217350       0.08630014    -608.48749305       0.10801021      -0.49466835      -0.35343251
I        0.35370815       1.26837301       6.78311586       0.07425660    -608.29044470       0.38596206       1.24972685      -1.04981887
I        6.23101568       8.49703407       6.73858643       0.08279800    -608.47054125       0.40803810      -0.03333662       0.12227862
I       10.55453968       6.06332684       6.06072903       0.10615189    -608.59468698      -0.08259142      -0.63727212       0.22725730
I        4.92910194      12.76004219       6.37219334       0.06339303    -608.22620500      -1.37228838      -0.24373837       0.15892080
N        5.81903887       5.71368980       2.97914791       0.04763145    -610.42140241      -0.71512981      -1.17742510      -1.43739556
N       12.17939568      12.85757256       2.65425754       0.05208068    -610.40161756      -1.48636010      -0.81384992      -1.27136638
N        1.59102166       5.77276087       9.62256336       0.01825143    -610.19288824       0.01173805       2.37824955      -1.09121501
N        5.51626921      -0.22978903       9.76877785       0.04650870    -610.38142038       0.03211137       2.46225316      -1.74815066
N        8.16792679       5.74601412       8.35312366       0.04656954    -610.35942446      -1.02543570      -5.08396049      -1.58513182
N       -0.91694099       0.41171286       9.49944878       0.04559745    -610.30257862      -2.35967819       0.85732473       1.40204307
N       12.43139744       6.69750309       3.55645704       0.04757291    -610.43857926      -0.40727379       0.19133351       0.74308967
N        6.64342260      11.46382332       2.27474022       0.04513993    -610.49339736      -4.08335786       2.65451330      -1.22042071
C        7.08215523       5.71358824       9.29204655      -0.16579016    -610.08317152      -4.17629088      -0.48744101       2.05340644
C       10.75663090      11.99908733       8.73331451      -0.17067544    -610.11773516      -0.19496030      -0.35974038      -1.38054945
C        0.63644636       8.01002789       2.93491697      -0.16459027    -610.04541327       0.84145169      -0.18847270       0.70494921
C        5.95195913       0.36144951       3.14830089      -0.16864856    -610.03362888       4.97971918      -0.22613624       0.39039657
C        6.91730404       6.73539877       3.26670146      -0.16242795    -610.06699281       0.09941595      -1.47187125      -1.06443932
C        0.86521339       0.46753317       3.16566825      -0.16063331    -610.04439149       1.16699470      -1.93642773       1.17795024
C       12.84496498       4.90493441       9.79714489      -0.16989252    -609.97053329      -1.86380713      -3.37022756       1.11661057
C        6.73829222      10.82807064       9.49503326      -0.15861604    -610.04932204      -1.56834475      -0.29641762       2.43336082
H       11.93433666       5.47091818       9.70324421      -0.00327831    -609.19950636      -0.82826467       0.20676498      -0.41599549
H        5.90649700      10.06540394       9.32900429      -0.00247514    -609.32696219       1.56838690       0.34325019      -0.14543244
H       12.85851192       4.02200270       9.07139683      -0.00207436    -609.31489661      -0.30397464       0.55944024       0.81216087
H        7.31056023      11.14541531       8.63082695      -0.00280349    -609.16882619       0.58760870      -0.85764884      -0.05258145
H        0.45193806       4.47798061      10.83897495      -0.00576561    -609.23844024       0.23044917       0.06561571      -0.64923012
H        7.29375982      10.60956669      10.52142525      -0.00267042    -609.32009692      -0.76953166       0.23618103      -2.42844474
H       -0.11936865       8.36160755       2.20150614      -0.00403188    -609.32647947       0.74768354      -0.31369583       0.21728956
H        5.75467062       0.16293706       4.18177223      -0.00327472    -609.22758947      -0.47343733      -0.64433687       0.20523571
H        1.68503404       7.85448885       2.56124878      -0.00357253    -609.33805789      -1.07847288       0.12552899       0.02403505
H        5.33930063       1.03791571       2.70039058      -0.00322366    -609.16312746      -2.61814632       1.38094935      -1.37256790
H       12.99130821       8.76264191       3.77556777      -0.00282785    -609.33681553      -0.13192192      -0.65273270      -0.76961799
H        6.89895487       1.01620734       3.18639231      -0.00167319    -609.39552946      -0.75856862      -1.15092028      -0.00165476
H        3.00984144       5.69363832      10.64363670       0.00829451    -607.94988951       0.93808826       0.26216205       2.05280713
H        4.52685928      -0.42676729      10.03587437      -0.00062288    -609.43921213       0.53258329      -0.14389157       0.25010697
H        2.54572058       5.39821100       9.64307308       0.00893001    -608.86530870       0.45416418      -0.87378642      -0.43657170
H        6.00408840       0.34594777      10.51057816      -0.00010159    -609.45006243      -0.83985728      -0.22885552      -0.82387373
H        1.52387464       6.00446033       8.65097237       0.00025017    -609.04458449       0.74477047       1.31414623      -1.10075097
H        5.38083363       0.38170174       8.75980759      -0.00030308    -609.37159861       0.35256242      -1.41560431       2.50901243
H       12.08846283       6.91414118       4.57388496      -0.00169757    -609.45324941       0.37146850      -0.53462201      -1.49568767
H        6.41183472      10.58486462       2.62403274       0.00079609    -609.37640668      -0.19479114      -2.12462631       1.52431804
H        0.80148834       5.86123133       3.68218422       0.00030904    -609.47993195      -0.40737147       1.22857437      -0.57636580
H        7.45793962      11.45521355       1.71752453      -0.00045510    -609.34251281       1.91851161       0.35653583      -0.58679863
H       11.58384037       6.37246656       3.03690243      -0.00052162    -609.50710944       0.69248681       0.10746799       0.41439659
H        5.80151367      11.56408405       1.51571584       0.00006021    -609.41430324       1.56914347      -0.25206980       0.95359896
H       -1.62067497       1.33981216       9.88285828      -0.00090356    -609.25313158       2.46277789      -1.53648585      -0.59962722
H        8.71751881       6.51332188       8.48254013       0.00025280    -609.28470166       2.25626073       3.16092351       0.32583304
H        8.84188175       4.84263086       8.37285137       0.00158655    -609.39096508      -1.45518320       1.84898390       0.46694610
H       -0.18561919      12.09389782      10.23635578       0.00093405    -609.37183254       0.29063402      -0.08888831       0.82292079
H       -0.14346792       0.64370728       8.82477093       0.00096404    -609.29509782      -0.37914566       0.37638327       0.50499333
H        7.69083548       5.68425274       7.36540079       0.00029078    -609.33496210       0.78495617       0.26259247       1.21483303
H        6.41671324       6.59548044       9.04261684      -0.00106441    -609.36683593       0.60050498      -0.73679541       0.22557179
H       10.11634254       0.38631728       7.89277697      -0.00285631    -609.37030440       0.19532639      -0.90021922       0.17429733
H        7.24608088       5.78472900      10.41188717      -0.00309821    -609.29220042       0.84984320      -0.05690333      -1.30144599
H        9.79187775      11.73264122       9.16097546      -0.00435299    -609.30356708       0.08214055       0.68730242       1.04678806
H        6.32685328       4.79307938       9.19760323      -0.00125579    -609.34922034       1.93611673       1.55816523      -0.24161911
H       11.12978935      11.01742935       8.44446850      -0.00236179    -609.31283297       0.23219407       0.29496237      -0.59034681
H        6.99515533       7.48862267       2.43822217      -0.00303058    -609.34484487       0.13188431      -0.95674926       0.53642680
H        1.06163943       1.42845786       3.72884226      -0.00365635    -609.29772561       0.11146229      -1.15242964      -0.71315313
H        7.81959438       6.11642122       3.44322896      -0.00313389    -609.37886404      -0.14649383       0.63138405      -0.13026622
H        2.02821183      12.50980568       2.32718277      -0.00325353    -609.29321288      -1.26040746       0.65063923       1.30183265
H        6.59037161       7.21896029       4.14670467      -0.00230793    -609.24377706       0.01594894       0.68662022       1.11468990
H        0.82170045      -0.44968519       3.96053028      -0.00177915    -609.35520664       0.44204781       2.03285070      -1.71114817
H       11.90023136      12.22521210       1.81690764       0.00082493    -609.47946734       1.04032925       0.95706857       0.78035223
H        5.36719322       5.28668928       3.86606479      -0.00081536    -609.47420404       0.81520722       0.71296710      -1.18938741
H       11.88804054      13.85135174       2.38874960       0.00004881    -609.35720851       0.28372177      -1.22656257       0.39173472
H        6.13995171       4.86412001       2.30727243       0.00045615    -609.45631899      -0.58768246       1.62920054       1.28922630
H        5.05041409       6.15892982       2.38625169      -0.00018759    -609.52074722       0.70447156      -0.53944815       1.07697805
H       11.15572548       0.17439756       3.35887694       0.00039898    -609.44388355      -0.38866311       0.37324462       0.52493696
96
Lattice="12.299111366271973 0.0 0.0 0.397482693195343 12.292691230773926 0.0 0.0 0.0 12.580405235290527" Properties=species:S:1:pos:R:3:initial_charges:R:1:energies:R:1:forces:R:3 original_dataset_index=340 energy=-58452.80635625008 pbc="F F F"
Pb       9.78990173       9.35144043      12.36804199      -0.13567740    -606.01971281      -0.35755099      -0.28936345       0.16138451
Pb       2.73520350       3.18815017      12.24565887      -0.12829508    -605.82964699      -0.32503776      -0.06158693       0.18370266
Pb       3.43171644       8.62299824      12.56224060      -0.12505010    -605.85641525       0.34193322       0.82739225       0.34065641
Pb       8.74730301       3.69379568      12.75997066      -0.11746821    -605.58563934      -0.57758772      -0.18364456      -0.01704378
Pb      10.05656052       8.78133965       6.24280214      -0.16118965    -606.50187927       0.28533522       0.51592989      -1.27673749
Pb       2.92192531       3.26236057       6.37778521      -0.13948791    -606.09832882      -0.02946032       0.40683930      -0.12791289
Pb       9.34025288       2.73954654       6.63116837      -0.14452410    -606.18187281      -0.30578643      -0.06308734      -0.36227982
Pb       3.25494504       9.39732933       6.27646685      -0.13622504    -605.96105917      -0.33143196      -0.99064252      -0.30378223
I        9.70596409       8.60363293       9.23050308       0.07812617    -608.42810402       0.00298497       0.06696789       0.86438704
I        3.71901941       3.39776015       9.44024086       0.08611339    -608.51329439       0.33041647      -0.08279670      -0.43539533
I        9.50435829       2.66503072       3.33826828       0.08510823    -608.46672371      -0.09563648       0.09735016       0.12939599
I        4.42747784       9.37466621       3.16633368       0.05969197    -608.16659032      -0.50855428      -0.03201030      -0.04673890
I        3.01911998       2.80909276       2.93922019       0.08739789    -608.47020002      -0.27122294      -0.12718959       0.38426811
I        9.42737770       9.58867550       2.92515254       0.08058801    -608.28598019       0.15662613      -0.60823766      -0.58862243
I        3.67023063       9.02678204       9.36673164       0.08590909    -608.53102518       0.01213711       0.01132044       0.39406779
I        9.07859802       3.36952567       9.65616226       0.07938889    -608.48246615      -0.26111002       0.17211168       0.41625610
I       -0.90816003       1.96872985      12.88409424       0.13004747    -608.92405748       1.25695642      -0.04770772      -0.31730389
I        6.64533424       9.13809776      12.32089043       0.05473501    -608.16968800      -0.14887351      -0.30096897      -0.21970688
I       10.01887131       6.30140591       0.13131516       0.09300128    -608.57235732       0.67505193       0.00819996      -0.19014804
I        4.58633566      12.56187439      -0.18002503       0.15276800    -609.04126062      -0.50642883      -0.53334114       0.98868773
I       12.75680161       9.96403503       7.02414465       0.07918272    -608.40211749       0.45907632       0.19583546       0.39341755
I        6.00078964       3.01652479       5.98362827       0.08295666    -608.42523003       0.69490730       0.00647719       0.24058778
I        3.42801213       6.28013515       5.75189877       0.08384193    -608.43718174      -0.35004770      -0.13838516       0.37202779
I        9.08673286      -0.35242569       6.17134523       0.07676522    -608.38973156       0.07260751       0.16888342      -0.10385474
I       12.77258873      10.02865791       0.02587421       0.08301057    -608.49468600       0.59686723       0.11732036      -0.06417718
I        5.47917318       4.05225515       0.47720173       0.07456395    -608.36981768       0.73788859       0.28826994      -0.01366382
I        1.96936858       6.15433836      12.00505066       0.08745759    -608.53588976      -0.46998917      -0.34617940       0.11353194
I        8.37788582       0.15646167      12.17573357       0.15471785    -609.06871658      -0.45492180       0.13454044      -0.28995185
I        0.04853398       2.28882861       6.74166727       0.08327002    -608.46833933      -0.03458237       0.02517648       0.01746311
I        6.56876898       9.43511486       6.72086382       0.11582679    -608.83220654       0.02803349       0.09624930      -0.53438497
I        9.86325550       5.74075699       6.12144566       0.08067349    -608.50561871      -0.17853397      -0.06237906      -0.32879224
I        4.05006170      12.25242424       6.42580557       0.11237862    -608.71039485      -0.07684019       0.86638108      -0.43071504
N        6.20051718       6.09019184       4.08066320       0.00392956    -610.43518307       0.39442061      -0.24925296      -0.85665172
N       12.24189281      11.42657757       3.19518375       0.05426359    -610.37102254      -2.13682857       0.96993054       2.31308995
N        1.03359222       5.86168623       8.22374916       0.00428135    -610.75071956      -1.16798931      -0.59930811      -0.38781798
N        5.36681843      -0.03247298       9.31320286       0.04833673    -610.53310229       0.54928670      -0.06203247      -1.52777124
N        6.78437519       6.87192583       9.43393421       0.01429706    -610.25087448      -2.62012637       0.93252024      -1.08745986
N        0.71322149       0.45400122       9.77233028       0.00784420    -610.63259775      -0.99482946      -0.35837376       0.74170974
N       12.41817665       4.56762314       2.65296984       0.04687474    -610.50747780       0.67745586       0.25948866       0.42975730
N        6.95320797      11.48596096       2.48211861       0.00353245    -610.44970435      -3.15404251      -2.73224034       2.37688611
C        5.99605942       6.11662149      10.09977531      -0.11966826    -610.07699697      -0.48090434       0.18447997       0.55146464
C       12.04817200      12.22525024       9.55329418      -0.16230437    -609.98920254       0.19973516      -0.85866075       0.79784008
C        0.45335647       5.81141424       3.46118498      -0.16469991    -610.09869877       0.03709692      -0.30192113      -0.30762770
C        6.31808710       0.33556318       3.34468627      -0.17986596    -609.80693115       2.18634433       0.53522986       0.87025107
C        6.21685553       4.82547951       3.72669458      -0.12030455    -610.23330638      -0.11210851       1.06465332       0.19108940
C        0.35452902       0.27569097       3.67868090      -0.16860361    -610.05007172       0.65870163       0.71272250      -0.25083959
C       12.25580978       5.32590628       9.07905674      -0.16284372    -609.96076591       0.91678466      -0.43937993      -0.59579013
C        7.21497393      12.39643097       8.87299156      -0.16358031    -610.10802836      -0.17194684       0.18300573       0.77156886
H       11.87036228       6.03097248       9.80731583      -0.00100957    -609.20158399      -0.05022042       0.24056569       0.52945700
H        7.25154448      12.59830379       7.79855680      -0.00482091    -609.35041485      -0.03050324      -0.03537093       0.19154118
H       11.41804886       5.04881287       8.43878269      -0.00348944    -609.21316715      -0.09557423       0.02282978      -0.11861263
H        7.66566610      13.22100639       9.46592140      -0.00239554    -609.38383376      -0.26238602      -0.22900304      -0.60878624
H        0.28362426       4.37569857       9.55516243      -0.00439895    -609.31067303      -0.04105791       0.51762579      -0.06204228
H        7.74899292      11.47345352       9.12906170      -0.00337650    -609.40812669      -0.10561848       0.03026899      -0.19132389
H        1.37443042       5.61074066       4.05359268      -0.00328599    -609.35152586      -0.75958067       0.22085023      -0.13672651
H        6.16991758      -0.23972879       4.21497917       0.00507278    -608.99977166      -0.72116143       0.98746837       2.25055619
H       -0.44557375       6.04091311       4.05202389      -0.00272029    -609.34264994       0.46571583       0.12138330       0.11767986
H        5.47413301       0.97082388       3.20507503      -0.00613223    -609.08682953      -0.90945958       0.36843743      -0.85778307
H       12.95887852       6.61872339       2.72763538      -0.00226836    -609.40323013      -0.06528115      -0.31347480       0.40665381
H        7.20265627       0.96754867       3.59621859      -0.00236211    -609.20558557      -0.37332487      -0.22611073      -0.46625404
H        7.10236883      12.55666733      12.32747746       0.00071965    -608.09879062      -0.13638224      -0.07233906       0.14260454
H        5.19110584       0.52084708      10.13134098       0.00082615    -609.39960369      -0.22970075       0.52623566       0.64932084
H        1.96101367       5.90600252       8.61037159       0.00003343    -609.19036855       0.06999103       0.36837798       0.34369447
H        4.71019220       0.30082738       8.55676174      -0.00048884    -609.46230897       0.30865717      -0.09561613       0.30294132
H        0.73671347       6.69459057       7.71105719      -0.00018139    -609.22673735       0.47181341      -0.15335693       0.30062523
H        5.09745836      -1.00696158       9.47693539      -0.00022669    -609.49967715      -0.10542389      -0.30132520       0.22252298
H       12.18188763       4.92249155       1.71883261      -0.00050279    -609.46129486      -0.20604492      -0.69186460      -0.15501565
H        5.54425907      10.79470921       6.01272631      -0.00159535    -608.11919079       0.44708512      -0.18558174       0.67066213
H       -0.63128555       3.96441746       3.04987717      -0.00001927    -609.46043656      -0.52109774       0.45682596      -0.09275388
H        6.59022331      10.65987206       3.42533898      -0.00138907    -608.61851816       2.03499801       1.61368356      -5.00965720
H       13.23849297       3.89362979       2.65553856      -0.00019371    -609.44944494       0.08472770       0.52455219      -0.39144236
H        7.88258743      11.32527924       2.13011217      -0.00041225    -608.83823621       0.51214052      -0.06116505       0.43753768
H       -2.37626362       1.18024588      13.17925262       0.00219359    -608.13551845       0.19944668      -0.04058484       0.14780111
H        6.36349201       7.66962051       8.85821056       0.00342740    -609.25385103       0.77983939      -0.89085106       0.85884463
H        8.43032265       6.18277454      15.26008511       0.01185354    -608.91977211      -0.00273058       0.06286865       0.04062283
H        1.59335709      12.21756268      10.49814510       0.00123551    -609.21092179       0.15569654      -0.06037085      -0.43110808
H        1.17818618       0.46245483       8.88845253       0.00058768    -609.18860125       0.86756498      -0.20409074      -0.40583800
H        7.76094913       6.75128937       9.43153667       0.00494050    -609.14667916       1.94970797      -0.13255066      -0.19347091
H        4.91909313       6.44102383      10.13136196      -0.00426248    -609.12443068       0.83855240      -0.74643648       0.02717894
H       11.47906876      -1.20732510       9.52081871      -0.00121113    -609.26981321       0.53702743       1.24943909      -0.01832435
H       15.75818348      -0.15133180       1.32833600      -0.00258588    -608.17647592       0.27287642       0.10074878      -0.40628640
H       11.71804619      12.64755154       8.61495304      -0.00312604    -609.22412276      -0.52007009       0.04724694      -0.25466123
H        6.44791412       5.29732323      10.69905472      -0.00340585    -609.08068375      -0.58502271       0.35523656      -0.36419229
H       11.43634129      12.58706188      10.38620186      -0.00195674    -609.22350987      -0.40537362       0.12294071      -0.08103075
H        7.98989916       5.91416788       2.13441849       0.01100730    -608.91664129      -0.01562912       0.17408158       0.10747795
H        1.24947596       0.00486058       4.25810575      -0.00352284    -609.32369620      -0.30761567      -0.31177417      -0.21132801
H        5.33943796       4.20888615       3.59028077      -0.00604429    -608.90073726      -0.26490884       0.05929260       0.46722015
H        0.06650510      13.13240433       4.32019138      -0.00331522    -609.36376047       0.55294002       0.40273143      -0.12212163
H        7.15609598       4.51807165       3.33577490      -0.00557611    -608.94331644       0.57766068      -0.75317921      -0.60758343
H        0.69228339       0.89200211       2.80421996      -0.00337689    -609.39777310      -0.38880166      -0.50045391       0.71450071
H       12.00061226      11.52998352       2.21424317      -0.00095813    -609.27267770       0.21106199      -0.96941357      -0.47013589
H        6.88049316       6.73034859       3.60823560      -0.00070605    -609.03370800      -0.31916222      -0.57793028       1.19914285
H       11.31647396      11.55902481       3.70350337       0.00185143    -609.25304964       0.00033140       0.56817376      -0.84737030
H       11.35867214       9.32616329       4.67600727      -0.00769826    -607.99730687      -0.01983642      -0.16841842       0.06579031
H        5.41452408       6.42415857       4.66074753       0.00144719    -609.11057445      -0.14506817       0.41539929      -0.47095835
H       11.82434845      -1.77608955       3.71486282       0.00272694    -609.24598162       1.10092566      -1.21458674      -0.59789238
96
Lattice="12.299111366271973 0.0 0.0 0.397482693195343 12.292691230773926 0.0 0.0 0.0 12.580405235290527" Properties=species:S:1:pos:R:3:initial_charges:R:1:energies:R:1:forces:R:3 original_dataset_index=476 energy=-58449.09722917659 pbc="F F F"
Pb       9.57487106       9.18539333      12.83567810      -0.14180973    -606.12107213       0.46691908      -0.23038199      -1.70434282
Pb       3.23517203       3.11390114      12.45424938      -0.13661441    -606.05078893      -0.01072544       0.47808200       0.95180021
Pb       3.46382236       9.02758884      12.61288166      -0.13391091    -606.00684841      -0.52725399      -1.10462292      -0.31480177
Pb       8.43928528       3.06954956      12.72142601      -0.12879156    -605.96037555       0.06222609       0.17101200      -0.23580494
Pb      10.40647697       9.06336689       6.10305262      -0.15810171    -606.35777644       0.62113029      -1.51876427       1.34571723
Pb       2.93336439       2.93223119       6.33595419      -0.13926333    -606.06891310       0.06707272       0.40267911      -0.37768075
Pb       9.13640308       2.80591774       6.40848494      -0.13306162    -605.98210803       0.13468092       0.34236987      -0.13207488
Pb       3.27568388       9.27625179       6.24050283      -0.12677304    -605.82245930      -0.38556398      -0.16066118       0.50452159
I        9.12380123       8.84965992       9.07627010       0.04730476    -608.04871581       0.53764943       0.29411573      -0.38955924
I        3.70908356       2.79296660       9.61398125       0.09428161    -608.59087072      -0.02239735       0.10405470      -0.67203179
I        9.65808582       2.94119883       3.20193291       0.08788419    -608.57082979       0.01773831      -0.07469138      -0.21875038
I        3.76180816       8.88663006       3.05327559       0.08751976    -608.49126235       0.16945062       0.73641415      -0.13109794
I        2.08635592       3.17477584       3.20524359       0.08468989    -608.35379819       0.66055098       0.11396221       0.53208692
I        9.68550491       9.27120876       3.05999064       0.09287229    -608.52455968      -0.54592621       0.11048620       0.38931140
I        3.93842506       9.38747978       9.42264938       0.08003093    -608.38396126      -0.56458242       0.42914688      -0.26374210
I        8.86592007       3.51704192       9.50581360       0.08593181    -608.51200187       0.06963877       0.06453894       0.29968759
I        0.21740332       1.92406476      12.84791088       0.15706229    -609.00924413      -0.36063435      -0.51163474      -1.47964554
I        6.84565115       8.23420238      11.92056656       0.06089700    -608.10271195      -0.24028150       1.01384166       1.07522544
I       10.60986233       6.26470280      -0.63234228       0.05912872    -608.24809501      -0.20529926       0.09557369       0.44992162
I        4.18416309      11.95886230       0.16070491       0.15278086    -609.11887017       0.10535438       0.53625522       0.10711553
I       12.85165596      10.18335342       7.67333508       0.08044210    -608.35639005       0.52166969       0.27729295      -0.27364279
I        6.05086851       3.72389221       6.42673874       0.07954310    -608.38711889       0.11784323       0.04514318      -0.20362923
I        3.16903615       6.15068674       5.46384001       0.08530834    -608.39640971      -0.52122372       0.07635534       0.09644100
I        9.35442352      -0.30421436       6.20253658       0.09135912    -608.45775741      -0.18447563       1.08207659      -0.10993204
I       12.88111210      10.18840981       0.17993572       0.08069427    -608.49647928       0.15152406      -0.07630231      -0.08645450
I        5.75301361       4.92045927       0.34009880       0.07788283    -608.42251023       0.41825784      -0.83885165       0.07834804
I        2.08055639       5.89026499      13.02939987       0.06253535    -608.24569695       0.03295105       0.29229776      -0.38366293
I        7.83684158       0.10888439      11.97370625       0.08510660    -608.50799917      -0.09050083       0.02308255       0.25732282
I        0.06816444       1.99789381       6.65464544       0.08922574    -608.51361627      -0.38474938       0.33019713       0.17136452
I        7.15585279       9.04285908       5.96448851       0.11270016    -608.75839186      -1.47526906       1.62339887      -0.80841963
I        9.20605946       6.04433870       5.82551336       0.07755663    -608.37542954       0.01345657      -0.62326402      -0.30419169
I        3.85980844      12.24167919       6.20543480       0.09375344    -608.56967598       0.27383455      -0.01861592      -0.27281777
N        6.30853939       6.89968872       3.73216701       0.00964924    -610.22518973       1.61496946       0.08256533      -0.42377786
N       12.95130730      12.79896164       3.48107624       0.04847234    -610.33126168      -0.19668079       0.34265571       0.96996600
N        0.61721778       7.03799629       8.60896301       0.02681581    -609.86118682      -1.43601739      -0.49892058      -0.79492952
N        5.61412907      -0.06197683       8.98711395       0.04476093    -610.53655077      -0.09136866      -1.00857161      -1.97446159
N        6.88891697       6.28216982       8.73941040       0.01205218    -610.17233520       1.65011795      -2.38956136      -4.26295977
N        0.38589162       0.66200417      10.05359173       0.00757653    -610.63609148       0.94527682      -0.06816045      -0.43060844
N       12.38501835       6.15233612       3.38793492       0.04895939    -610.46111289      -0.55601436       1.72444462      -0.97268533
N        6.87559700      12.84029675       4.47381878      -0.00034393    -610.21150851       0.67083080      -0.63974205       2.06423796
C        6.05267620       6.81972218       9.47012138      -0.12753326    -610.00261268       0.33699417       0.28809387       1.79818008
C       11.58452797      12.91717911      10.03874969      -0.15926182    -609.91316792       1.35600253       0.02166172      -1.72894783
C        0.40213221       7.67752123       3.35435200      -0.16298869    -610.09863474       1.24112600      -1.90933144       1.54562508
C        5.68324232       1.35501599       3.13766885      -0.16042711    -609.38415470       1.57722310      -1.58696394       2.68980621
C        6.18027973       5.65135908       3.56213355      -0.12175521    -610.17589689      -0.49852520      -1.09514573       0.36282888
C       -0.05416103      -0.85701036       3.97614169      -0.17234643    -610.00383934      -1.71179463      -0.84241571      -1.02021198
C       13.21385574       5.77124262       8.41270924      -0.12345158    -610.02502458      -1.90282278       4.73073411       1.34542082
C        7.21571255      12.74376678       8.25125885      -0.16363917    -610.08887106      -0.27612873      -0.14648370       0.56360594
H       16.04850769       5.48445988       8.13177013       0.01373556    -608.83834105       1.30433284       2.23656950       1.24348191
H        6.90969467      13.19510078       7.29479074      -0.00540100    -609.38459557      -0.06153776      -0.16978737       0.23637642
H       12.27111626       5.40696096       8.61257458      -0.00209364    -608.73400839      -1.34172767      -3.42626698      -0.37750982
H        7.67164135      13.50018215       8.93038654      -0.00403239    -609.42109184       0.01183916      -0.43286744      -0.57238887
H        1.93753862       5.83320713       8.36726856      -0.00580988    -608.61496079       2.15123285      -2.42939856      -0.19366843
H        7.85863590      11.87850952       8.07974911      -0.00337068    -609.31164252       0.08194023       0.22386305       0.11588347
H        0.11538071       7.96139240       4.40195227      -0.00293401    -609.40836788       0.09700659       0.34834414      -0.85443876
H        4.65558052       1.01749134       3.05339909      -0.00582635    -609.00814554       0.03596025      -0.69442478       0.30822437
H       -0.06658390       8.21486950       2.54590178      -0.00518553    -609.21937207      -0.19728042      -0.01642700      -0.14427732
H        6.39796591       0.93025750       2.50930929      -0.00501844    -608.88935023       0.46970562      -0.31771538      -2.30910553
H       13.81443405       7.64330435       3.31619334      -0.00294673    -609.34902762      -0.82416291       0.60561649      -0.26455587
H        5.64417458       2.43642449       3.07146358      -0.00397889    -608.96935416       0.76936501       0.29467738       0.76036845
H        5.76891279      11.51636410      13.00697994      -0.00072112    -608.14605619       0.28279185       0.20731768      -0.06793817
H        5.87000704      -0.59467423       9.79382896      -0.00005632    -609.47888572       0.41562876      -0.73260746       0.88205188
H        1.42444980       7.62768555       8.56750298       0.00455639    -609.07033708       0.09966805       1.61425639       0.17486936
H        5.06405878       0.70481795       9.28581429       0.00090202    -609.44337529      -1.10391917       1.56361132       0.72849124
H       -0.41881752       7.42477560       8.46773243       0.00377296    -609.04923850       2.10125383      -0.48022971       0.00446336
H        4.94269085      -0.62659740       8.39159679       0.00037869    -609.47953583       0.77953014       0.23427625       0.37397278
H       12.20185852       5.76190948       2.44804811       0.00072022    -609.49022347       0.19640611       0.11484214       0.05720254
H        6.52119589      10.20538807       4.69305038      -0.00375221    -608.16916745       0.50902474      -1.16015557       1.13870613
H       -0.76226515       6.05008459       3.95721960      -0.00130085    -609.43150315      -0.10325699      -0.66617195       0.40650884
H        7.76946020      12.94286156       5.14863729       0.00494143    -608.82793563      -1.79200822       1.94614020      -1.90747974
H       13.25012684       5.75343800       3.76627564      -0.00129823    -609.37036097      -0.16192938      -0.74072667       0.35291159
H        7.18036270      11.81602669       4.47458172       0.00702841    -609.00010011      -1.56431115       1.04513705      -1.77600028
H        0.20307915       2.70337796      14.26816082      -0.00202911    -608.06133473       0.04863791       0.53993009       0.74217091
H        6.84812260       6.37937498       7.69562578       0.00602957    -609.17203582       0.76791699       0.17707620       0.86106205
H        8.39520836       6.36393881      14.61642742       0.00963389    -608.98144345       0.22745006      -0.01164201      -0.01650629
H        1.14744353      11.99915886      10.09096432       0.00177779    -609.24009095      -0.29359487      -0.09054307       0.45794177
H        0.92597717       0.97692060       9.20576096       0.00221473    -609.23033268      -1.40288907       0.42780153       0.65949461
H        7.39305782       5.44413853       9.08854008       0.00387568    -609.24169545       0.05144093       0.04894531      -0.53495564
H        5.67270899       7.76975632       9.21764183      -0.00405696    -608.86692435      -1.12875210       0.63223431      -0.30576518
H       10.73451710       0.66867030       9.01245213      -0.00230023    -609.28437357       0.32061753       0.05125155       0.65009747
H       16.37570381       6.24096060      -4.09460688       0.01088712    -608.89665660      -1.07804772      -2.23893392      -0.77119470
H       11.17509460      13.69192123      10.66610146      -0.00413299    -609.17420804      -0.21376479       0.48018800       0.10545861
H        6.18876028       6.39224815      10.42220592      -0.00149006    -608.99973922      -1.47586215      -0.08262229       1.54696421
H       11.34922123      11.96831036      10.45349121      -0.00312268    -609.21314350      -0.69922103      -0.94050833       0.51249013
H        7.83497953       6.19040251       1.56573749       0.01005231    -608.93706769       0.15095851       0.05079231       0.06142101
H       -0.89543664      -0.75450826       4.66873121      -0.00259639    -609.34101912       0.03792446      -0.38802422      -0.05241842
H        5.18989658       5.28440666       3.57649779      -0.00441741    -609.07764142      -1.14953630      -0.70119041      -0.58934753
H        1.24624479      11.21227932       4.51535892      -0.00272919    -609.39014694       0.36555091      -0.76839579       0.33227121
H        7.01951313       4.96008968       3.56215334      -0.00388936    -609.11330572       0.18969702       0.15733781       0.17487071
H       -0.27641717      -1.55634940       3.11773491      -0.00534405    -609.34512713       0.22744541       0.64638710       0.92989359
H       12.18734074      13.55952740       3.21938491      -0.00021626    -609.33973478       1.00180815      -1.80446961      -0.35348415
H        7.28465939       7.14080381       3.92873812       0.00324659    -609.20507080      -0.05297795       0.88870915      -0.32499253
H       13.76452351      12.57026482       2.88225245      -0.00055327    -609.36671110      -0.45962817       1.60471523      -0.24991257
H       11.55169201       7.38884163       6.80358744      -0.01090964    -608.03790969       0.07264852       0.82725141       0.12888287
H        5.56412935       7.59455013       3.49340105       0.00207413    -609.04611200       0.05447595      -0.00656191       0.57634702
H       12.85051346       0.88895637       4.40618277       0.00098217    -609.40077155       0.63589564       0.84295395      -0.48460921
96
Lattice="12.299111366271973 0.0 0.0 0.397482693195343 12.292691230773926 0.0 0.0 0.0 12.580405235290527" Properties=species:S:1:pos:R:3:initial_charges:R:1:energies:R:1:forces:R:3 original_dataset_index=221 energy=-58453.70623369267 pbc="F F F"
Pb      10.11103153       9.84498978      12.15729618      -0.12595308    -605.87339809      -0.51780865      -0.56865999       0.00494582
Pb       2.40920019       2.74672031      12.25968266      -0.13554722    -606.08528744       0.78526980       0.63620104      -0.25907758
Pb       3.67434883       8.83655930      12.51689911      -0.11961181    -605.72781481       0.03292520      -0.74019092      -1.24324075
Pb       8.54573345       3.57393193      12.88266754      -0.14058760    -606.07178132       0.11645179       0.49832525       0.49304729
Pb       9.54345703       8.71270561       6.14194202      -0.12925595    -605.90435991       1.11578895       0.18913002      -0.12909305
Pb       2.86407757       3.42461181       6.06532288      -0.13596375    -606.01969714      -0.10404359      -0.46508190       0.38451336
Pb       9.41539383       2.67783570       6.74467039      -0.13881168    -606.03740682       0.23631812      -0.25148323      -0.18077522
Pb       3.41183758       9.64274025       6.20857239      -0.10266687    -605.38741527      -1.06223932      -0.05801848       0.22015478
I       10.16192150       8.46750259       9.09764099       0.06994771    -608.36233217      -0.30013515       0.16354562       0.23559778
I        3.64853477       3.35245395       9.42503834       0.07583614    -608.44542609       0.00747177      -0.17149248      -0.07768105
I        9.27347374       2.61751819       3.54667282       0.07249070    -608.33640809       0.10867381       0.09572216      -0.27038519
I        4.46483755       9.57056808       3.03373027       0.13970467    -608.97777868       0.97290723      -0.34356924       2.22388669
I        2.36248946       3.26376724       3.05362153       0.08505136    -608.51031090      -0.06288491       0.13788521      -0.20999117
I        9.67691803       9.24544144       2.70702195       0.08485926    -608.42526674       0.31406074       0.44722198       0.33987353
I        3.55197859       9.43659973       9.67597294       0.08144063    -608.38856748      -0.02520761      -0.14585395      -1.20236232
I        9.33028507       3.31322789       9.88109112       0.09028151    -608.52408085      -0.03379036      -0.26120552      -0.12209129
I       -0.57236332       2.14546180      13.02017593       0.13405472    -609.01720691      -0.49629372      -0.38563845       0.01795201
I        6.74454832       8.57907677      12.55950546       0.06720677    -608.33826668      -0.10797655       0.03390037      -0.50181000
I       10.29965210       6.03074980      -0.06733021       0.06956480    -608.30614238      -0.27662254       0.53545802       0.20759170
I        4.05048943      12.15432453       0.02253467       0.08573031    -608.46208884       0.17235161      -0.11747779       0.18756093
I       12.59488487       9.77185345       5.93245411       0.08773358    -608.52453573       0.25177934      -0.05993825       0.37462614
I        6.60578108       3.60850835       6.33989334       0.04834636    -607.96155765      -1.30290914      -1.32146105      -1.24576797
I        3.01875353       6.39787197       5.83610106       0.09167128    -608.55753178       0.14010103       0.78564444       0.02170341
I        8.59108067      -0.47705054       6.09940910       0.07745732    -608.44536547       0.00801998       0.08592181      -0.29039127
I       13.00011826      10.17765713       0.26747990       0.09792623    -608.59836212      -0.09964162       0.01525368       0.13510622
I        5.55897808       3.62587166       0.37748009       0.06742860    -608.35447370      -0.23765014       0.33824845      -0.04612620
I        1.70255804       5.89994431      12.56903172       0.06604049    -608.26527847       0.63921083       0.08355300      -0.12285963
I        8.20846748       0.32926175      12.82184887       0.11204755    -608.73511294       0.16391186      -0.35235342      -0.50531755
I        0.09296276       2.01621461       6.38600254       0.08088889    -608.48332114       0.51522270      -0.12478128      -0.00861216
I        6.56780386       8.63822556       7.10466909       0.14708933    -608.93801803       0.29794485       0.36088020       0.48701078
I       10.45555973       5.59230518       5.87035084       0.08914489    -608.50650569      -0.41784264       0.24114803       0.64279644
I        4.25537729      12.73420334       6.15945005       0.09418783    -608.56375342       0.04320444      -0.83110323       0.48304513
N        6.39493895       6.45714045       4.49683094       0.01108289    -610.20845873      -2.13016629       4.31505503      -0.14942854
N       12.31999779      11.95186806       3.40191841       0.04665202    -610.46495275      -0.80724850       0.44948659       0.41529148
N        0.91469657       6.91861248       8.70356178       0.00812678    -610.47233552      -1.54435174      -1.19352126       1.48705885
N        5.34430361      -0.05500405       9.60052490       0.05039733    -610.49581027       0.52033404       0.96784058       1.53985704
N        7.26713753       5.52935505       8.36882019       0.01590005    -610.26491183      -1.21650316       1.85789359       3.06863547
N        0.64070433      -0.26090074       9.65361500       0.00184405    -610.82961982      -0.11248982      -0.68390116       3.85404605
N       12.14565182       6.00936985       3.16587687       0.04949470    -610.46046737      -0.70140252      -0.29012901       1.14062161
N        6.61705828      12.20746326       3.05171847       0.04575333    -610.50183284       0.53725220       0.51078988       0.97113598
C        6.17843962       6.22809553       8.60865211      -0.11541487    -610.03046574      -1.35255365      -1.54866555      -1.38209839
C       11.99242496      12.48834324       9.69945812      -0.15727204    -609.72260560      -1.07070980      -0.39280587      -2.90878030
C        0.62345839       7.25826836       3.02277184      -0.16765794    -610.10060938      -0.04393713       0.51352853       0.43288997
C        5.55661964       1.26304030       3.23803401      -0.16783404    -610.12476599       2.94032577       0.30492860       0.55632422
C        7.14483309       5.89666033       3.60537124      -0.16510066    -609.85207177       1.15632057      -0.91380877       0.26664257
C        1.11138260      -0.23741752       3.37591124      -0.16219079    -610.11586292       0.38747185       0.26709141       0.09169873
C       12.78573132       5.50698996       9.06982231      -0.17267311    -609.95536210      -0.29080630       0.46292770      -0.72629125
C        7.04167080      12.52385235       8.88699627      -0.15968665    -610.06125693      -0.24767032      -0.71640585      -0.61193432
H       13.38306332       5.09701014       9.84174252      -0.00172542    -609.23487652       1.02980482      -0.38036198       1.00051968
H        6.75361633      13.07194138       7.93393755      -0.00364759    -609.38340542       0.54757817      -0.95320007       0.87583415
H       11.78171349       5.25854349       9.42745304      -0.00398827    -609.26698995      -0.44113632       0.93977615      -0.32468048
H        7.69689274      13.16521454       9.48396111      -0.00315181    -609.30422469      -0.20496745       0.04779034       0.20690325
H        0.66771019       4.90309381       8.20453167      -0.00380086    -609.27464769      -0.00079172      -0.62523158      -0.80919539
H        7.56553364      11.51441193       8.74969006      -0.00311369    -609.39774398      -0.81109235       1.41317572      -0.22540083
H        0.43774608       7.96072054       3.86103702      -0.00387595    -609.35548778      -0.36514709      -0.36742568      -0.50153925
H        5.42362404       1.44380856       4.29164648      -0.00249400    -609.30898230       0.10394083      -0.16599968       0.46441632
H        0.39090571       7.70897150       2.04139638      -0.00453516    -609.39079191       0.23227524      -0.12148333       0.42688368
H        4.61545086       1.24083304       2.81408167      -0.00394868    -609.25451276      -1.78284035       0.21486391      -1.35946816
H       13.95328617       6.97349882       3.12907434      -0.00300499    -609.34728751       0.68704174       0.00975668      -0.32978706
H        6.27609253       2.06084228       2.88404703      -0.00383238    -609.43118979      -0.93104938      -0.89892467      -0.02132829
H        3.29351830       9.52387905      14.48740578      -0.00216132    -608.12706486      -1.28921117       0.13259368      -0.38380485
H        5.45673609      -0.58165503      10.50625038       0.00032294    -609.48502948      -0.10885539       0.13599878      -0.89117753
H        1.91661108       6.76969862       8.80174541       0.00057507    -609.14940573       0.27182518       0.95409775       0.17583744
H        4.81243134       0.79740739       9.90761471       0.00026872    -609.48975655       0.54171542       0.04138266      -0.32542499
H        0.52224028       7.49595833       9.49069786      -0.00002202    -609.18389893       1.06014247      -0.25610561      -0.85496653
H        4.67961454      -0.52487099       9.00087929       0.00020083    -609.43689871      -0.30103605      -0.71240413      -0.38471895
H       12.60542202       5.23842287       2.67216039      -0.00074932    -609.46789431       0.07694801      -0.16781251      -0.33564751
H        7.27249146      12.03925228       3.87206602       0.00018018    -609.52766396      -0.09726550       0.17325402      -0.92440542
H       -1.09981728       6.14785099       2.77220535       0.00075531    -609.47415108       0.02184404      -0.26710458      -0.13169907
H        7.11730671      12.17189217       2.12944198      -0.00067609    -609.46254742       0.07758932      -0.04548231       0.51474123
H       11.96933842       5.66602755       4.19749498       0.00005203    -609.45789745       0.35060892       0.71498349      -1.42452928
H        5.95553827      11.41639709       3.08210182       0.00193208    -609.47194568      -0.09195021       0.25582196      -0.11886448
H       -1.90622830       1.25047529      12.35000324      -0.00097934    -608.11338959       0.23302654       0.08638813       0.36408303
H        7.78061962       5.05009222       9.13845825       0.00115369    -609.16278927       0.07743792       0.51912934      -0.04880006
H        7.91093540       7.22164822      14.42913914       0.00462732    -608.82909419      -0.29677804      -0.26047213       0.59955906
H        1.48720670      11.63603878      10.50235271       0.00177806    -609.27290572      -1.09973703       0.44281573      -0.50101374
H        1.33863533      -0.27719221       8.99730206       0.00400943    -609.12466016       0.94070572       0.59049704      -2.78574525
H        7.47991657       5.13452435       7.46311140       0.00394885    -609.15005133       0.01314503       0.28927405      -0.82221083
H        5.65020323       6.35626364       9.58183002      -0.00283219    -608.96341745       1.17133673       0.05474869      -0.19593525
H       11.27246571       0.51577979       8.61318493      -0.00275080    -609.19939906       0.55852979      -0.79704926       1.61398903
H       17.52854347      -2.30859756       6.78725195      -0.00274230    -608.15323381      -0.26558390       0.61753551      -0.08714970
H       11.79624557      13.44174671      10.22429276      -0.00068989    -608.93040685       0.04402541      -0.55977624       0.48289912
H        5.43411064       6.37335730       7.73698950      -0.00115462    -608.97514518       1.22340092      -0.27601068       1.07341913
H       11.27885723      11.59228516       9.93505955      -0.00102553    -609.11041481       0.66924099       1.50018223       0.10633310
H        7.95266533       7.20466518       2.65762997       0.01085286    -608.85201993      -0.13659833       0.05836030      -1.35648417
H        1.58089209      -1.14916050       3.00347018      -0.00336545    -609.31851832      -0.49806849      -0.24598153       0.11123043
H        6.90193129       4.98751020       3.04022861      -0.00862400    -608.88708283      -0.27777195       0.53977999      -0.35744014
H        1.82130384      12.19026375       4.43870640      -0.00356766    -609.40550156       0.03482446       0.34623817      -0.82961873
H        8.16514492       6.21024275       3.78453994       0.00080383    -608.80285331       0.73604526      -1.40271830      -0.15814025
H        1.46006572       0.56440216       2.65733004      -0.00350111    -609.39193690      -0.59129630      -0.50477008       1.07204812
H       11.89813995      12.88672638       3.68471313      -0.00069678    -609.51013916       0.24743913      -0.85860259      -0.46105981
H        6.95659399       7.29836798       4.87710857       0.00366234    -609.21993105      -1.46462452      -1.48737580      -0.13560483
H       11.94520283      11.23841476       4.11576700       0.00037981    -609.46316973       0.80809242       0.59630473      -0.43639624
H        8.99227810       4.93274260       2.67608666      -0.01094071    -607.88870636       0.42071551      -0.46563287      -0.41617967
H        5.35119247       6.78764534       4.30057764       0.00281537    -608.97202756       1.97686154      -1.48939152       0.83809718
H       11.54040813      -0.65735847       2.49823499       0.00012543    -609.50504143      -0.00077310       0.27453355      -0.07787464
96
Lattice="12.299111366271973 0.0 0.0 0.397482693195343 12.292691230773926 0.0 0.0 0.0 12.580405235290527" Properties=species:S:1:pos:R:3:initial_charges:R:1:energies:R:1:forces:R:3 original_dataset_index=484 energy=-58449.95060813989 pbc="F F F"
Pb       9.59250546       9.15069103      12.84255314      -0.14337969    -606.13277465       0.50331375      -0.15386471      -1.62787533
Pb       3.31827736       3.16391635      12.48161411      -0.13124360    -605.92050593      -0.22419525       0.27382831       0.96772507
Pb       3.44233108       9.00642586      12.58373547      -0.13517749    -606.02575348      -0.32217681      -1.17398689      -0.07203672
Pb       8.43603897       3.06178951      12.70881557      -0.12855351    -605.95887971       0.10219729       0.25584766      -0.17688988
Pb      10.42029953       9.06079388       6.12821198      -0.15697119    -606.33969226       0.78197440      -1.07491336       0.46088307
Pb       2.93613815       2.91538692       6.33533764      -0.13853215    -606.06807466       0.07892914       0.58406052      -0.22097145
Pb       9.14034843       2.82875586       6.39747429      -0.13915084    -606.12185086      -0.07611382       0.01528713      -0.17596127
Pb       3.28983045       9.28486252       6.24528122      -0.12300921    -605.74644508      -0.43646706      -0.51843083       0.39793387
I        9.12345982       8.87989330       9.01686478       0.05387939    -608.14234042       0.36648173       0.13304965       0.16395739
I        3.67232418       2.71391797       9.64342594       0.09952077    -608.63945445      -0.03591411       0.21342240      -0.76574023
I        9.70622063       2.95246577       3.17484641       0.08990277    -608.56737186      -0.10162980      -0.12021530      -0.28791587
I        3.72058225       8.91728973       3.05296254       0.08488581    -608.47349427       0.40156098       0.71210008      -0.11481146
I        2.04526496       3.22195148       3.24013901       0.10808769    -608.57013219       0.60279894       0.19568806       0.44268198
I        9.65484619       9.26625347       3.06572604       0.08486508    -608.44358226      -0.30744396       0.09901592       0.42155486
I        3.91438508       9.43707275       9.43025303       0.09829474    -608.57492033      -0.33850353       0.30143851      -0.13183568
I        8.88241386       3.51690149       9.48516464       0.08665116    -608.51670348       0.11684510      -0.08303136       0.32339496
I        0.21327759       1.90279007      12.84186172       0.15974559    -609.02918186      -0.37579706       0.67538238      -0.19964139
I        6.87442541       8.19606113      11.95617485       0.07854240    -608.36227894      -0.55874528       0.43527891       0.18091264
I       10.59800625       6.30993652      -0.66965353       0.06031939    -608.22828138       0.20511067       0.05739496       0.12700708
I        4.13870907      11.90888405       0.17462865       0.15682101    -609.12592749      -0.44003557       0.85021108       0.22586288
I       12.85278893      10.17268467       7.72313213       0.07694780    -608.34181608       0.56815613       0.04092139      -0.21025898
I        6.01725006       3.77221990       6.40798378       0.07361634    -608.33585458       0.20610591      -0.09793214       0.03968125
I        3.09650469       6.11960030       5.42213631       0.07404432    -608.29433928      -0.21235794       0.00657612       0.58518132
I        9.37263012      -0.26780409       6.23390388       0.07414326    -608.31569036      -0.13517688       0.89517479      -0.28763864
I       12.86468983      10.19867420       0.19507208       0.08392961    -608.50534135       0.16327266      -0.15515186      -0.10808597
I        5.76123810       4.93189859       0.34627873       0.07627932    -608.36217200       0.63636917      -0.80068776      -0.32538929
I        2.13332105       5.88618183      13.10363674       0.06419253    -608.26222287      -0.11517795       0.26254426      -0.40269492
I        7.82343245       0.07266595      11.96758175       0.09419046    -608.57649123      -0.22858292       0.09971682       0.31830388
I        0.06100697       2.00362706       6.61414671       0.08088586    -608.43544406      -0.30174036       0.39289254       0.31421600
I        7.16847420       9.04257584       5.92897272       0.11954121    -608.80722401      -1.14425909       2.24946916      -1.01929066
I        9.18577194       6.04120731       5.78742361       0.08965160    -608.50186403       0.19111894      -0.28497764      -0.04672738
I        3.88662219      12.20714092       6.16322851       0.10162807    -608.62502996       0.19908998       0.14225812      -0.12715456
N        6.34404564       6.79677820       3.67027330       0.01167439    -610.23346661      -1.72047830      -1.30526424      -0.64653747
N       12.99594402      12.79583359       3.39702678       0.04805793    -610.41965055      -1.26622116       0.60858366      -0.55676813
N        0.70279366       7.12771320       8.87473392       0.01323807    -610.15184674       4.11317537      -3.87577555      -0.91107120
N        5.64772844      -0.03852892       9.06265450       0.04530046    -610.48401264       0.64951829       1.65967168       2.46208995
N        6.94601583       6.15648127       8.75637245       0.00087608    -610.39188888      -0.36843986      -1.19629801       0.84977822
N        0.31430840       0.62066817      10.34523582       0.00904594    -610.60830577       0.02358818       0.47080758      -0.57998767
N       12.28956985       6.24686289       3.51161766       0.05346484    -610.44184629       0.39915758      -1.81326473       0.47576156
N        6.74605465      13.06428051       4.42831039       0.01792907    -609.62523016       3.58112148      -2.25270093      -3.03514076
C        6.14188719       6.80256319       9.50503731      -0.12812948    -610.11912374      -3.36571570       1.69415493       0.36044646
C       11.59522343      12.82248402       9.97650814      -0.16198727    -609.96207113      -0.59834490      -0.39826635       0.44548332
C        0.52122217       7.61196518       3.42480564      -0.18415321    -609.94836890      -0.47557613      -0.33035114      -2.96520044
C        5.65972376       1.31824636       3.33824086      -0.21593565    -609.48405641      -5.40900409       6.99441949      -1.58011211
C        6.08692074       5.54345798       3.49649835      -0.12229779    -610.16038829       0.21864495      -0.45400078      -0.55369048
C       -0.00436479      -0.89480257       3.88272047      -0.16435693    -609.97427987      -0.04283410       0.92189664       0.52050154
C       13.22201443       5.85372019       8.49305058      -0.10787269    -609.88964305       0.61707035      -1.91067787      -1.00207632
C        7.21943378      12.62996578       8.22520256      -0.16920352    -610.10272184      -0.60089596      -0.31020378      -0.01290788
H       16.35482788       6.83413076       8.78801727       0.00920352    -608.83327148      -0.38333946      -1.77342064      -0.57830775
H        6.79889154      13.20681667       7.40386868      -0.00318917    -609.39899941       0.34813507       0.22245053      -0.16151227
H       12.44428730       4.97880030       7.95161247      -0.00112216    -608.87865400       1.07429101       3.24014505       1.82299436
H        7.95228815      13.16059780       8.80932522      -0.00467330    -609.31710131       0.13920599       0.42034999       0.25594220
H        1.92916000       5.19578743       8.50418949      -0.00433337    -608.76817888      -1.63591564       2.50110303       0.41623692
H        7.68362427      11.71445560       7.85762215      -0.00392765    -609.33886047      -0.19730555      -0.05496117      -0.02652065
H        0.22787203       8.18807888       4.26459789       0.00024235    -609.26259637      -0.25970006       0.39279473       0.78935522
H        4.54307365       1.15056860       3.37701702      -0.00253091    -609.14469936       0.71298135      -0.16110867       0.04724889
H        0.01365146       7.98133469       2.52360082      -0.00379690    -609.36882429       0.47334246       0.44215100       0.12010902
H        5.85049820       1.35174811       2.23277283      -0.00252465    -609.15335903       0.92631569      -0.85617198       0.43907368
H       13.87981892       7.65334797       3.33981967      -0.00566668    -609.21725438       0.68631043      -0.44032591      -0.32143959
H        5.70402479       2.42642379       3.63395596      -0.00312584    -609.12910099      -0.39032338      -0.45419364      -1.10477883
H        5.77152920      11.77488232      12.65479183       0.00048733    -608.10579146       0.88876252       0.05523898      -0.12258637
H        5.96209764      -0.62528443       9.87149048      -0.00005766    -609.49754706      -0.43209473      -0.04280515      -0.77222309
H        1.42056632       7.91536140       9.08568668      -0.00057240    -608.98261967      -0.99399460      -1.58752299      -0.32304399
H        5.10237265       0.80324197       9.52896976       0.00063432    -609.48397974       1.05667218      -1.05492018      -1.00513287
H       -0.22931926       7.32689476       8.93698406       0.00204783    -609.03397932      -3.35095393       1.47013222       0.23726134
H        4.98456287      -0.45979393       8.45416927       0.00018994    -609.41396457      -1.13039771      -1.14557633      -0.52885961
H       12.06799412       5.86722183       2.58858299       0.00165668    -609.42199577      -0.44527482       0.36227104      -0.44275018
H        7.21304464      10.57771015       4.83682680      -0.00484149    -608.14510940      -0.06801623      -1.64418671       1.20346732
H       -0.87501770       6.19652653       4.10398388      -0.00067508    -609.47470256       0.35359386       0.00914104       0.03535925
H        7.38854885      12.80008221       3.54682350       0.00760510    -609.12136638       1.21632834      -0.80260958       3.29953689
H       12.98385239       5.49260283       3.79837418       0.00061512    -609.44015963      -0.42291328       1.03548990       0.54266759
H        6.16021585      12.26965618       4.40055084       0.00763507    -609.01145839      -0.26398981      -2.61434834       1.70472300
H        0.22901790       2.87259579      14.29698086      -0.00176673    -608.11279730      -0.07242105      -0.38396235      -0.62939366
H        7.28558826       6.56730318       7.89867353       0.00024904    -609.14468548       0.61862557       0.16712992      -0.33093107
H        9.01829529       5.98565626      14.16022301       0.01195312    -608.97022768      -0.27540446      -0.02971898       0.14426742
H        1.13008142      12.03563309      10.64128399       0.00197376    -609.19826677      -0.04413803      -0.16129008      -0.29267328
H        0.80306697       0.98873532       9.51756191       0.00053901    -609.23130879       0.24000240      -0.17047698       0.53673577
H        7.21214867       5.16656351       8.99044895      -0.00077345    -609.13428965       0.10627226       0.60014358      -0.27227697
H        5.60031986       7.75221014       9.19375896      -0.00448979    -608.85511300       2.01175672      -0.46296627      -0.16874625
H       11.05213642       0.59010869       8.90867233      -0.00156173    -609.16747437       0.19213911      -0.11088860      -0.70124013
H       16.39394379       6.04949999      -4.05855417       0.00706778    -608.93005723      -0.15516046       1.39928739       0.31301498
H       11.06623745      13.75443363      10.32607174      -0.00293827    -609.21973769       0.07183776      -1.09257191       0.28235172
H        5.36213827       6.47064638      10.24201107      -0.00257804    -608.78326419       1.69912627      -1.00368579      -0.14897894
H       11.14471054      11.81540203      10.23942566      -0.00423447    -609.31666939       0.22571449       1.25443448       0.27718166
H        8.29101658       6.09191036       1.40217257       0.01061560    -609.03522118       0.02516035      -0.04061379       0.31126994
H       -0.94604099      -0.74910867       4.44283962      -0.00222246    -609.34967773       0.61470026      -0.55786607       0.36417000
H        5.19671202       5.22108889       2.88332343      -0.00363305    -609.11144677       0.59643585       0.43934460       1.23972324
H        1.21747148      10.89126968       4.42170668      -0.00537308    -609.32288883      -0.37279101       0.66677903      -0.10646093
H        6.81346607       4.80220222       3.83351493      -0.00447986    -609.06394205       0.02994265       0.00812239      -0.27632484
H       -0.24628419      -1.43637478       3.00031447      -0.00335464    -609.26571790      -0.05403839      -0.72390859      -0.79625385
H       12.20903587      13.41701126       3.64880013      -0.00041681    -609.43636172      -0.23480411       0.01255919       0.97850775
H        7.21256495       7.10715675       4.12212706       0.00210527    -609.05772419      -0.20281956       0.12859270       0.04405694
H       12.74020481      12.87225342       2.37487960      -0.00063750    -609.40624094       1.50159608      -0.36636871       0.29055144
H       12.04082775       7.79866457       5.41977930      -0.01115276    -607.99680781      -1.03189370       0.22475105       1.78437335
H        5.47343922       7.35023642       3.43720222       0.00357923    -609.15550080       1.27106375       0.85139464       0.25416703
H       13.41452599       1.13784921       3.68307304       0.00205141    -609.39577791      -0.18639483      -1.09843418      -0.56285501
96
Lattice="12.299111366271973 0.0 0.0 0.397482693195343 12.292691230773926 0.0 0.0 0.0 12.580405235290527" Properties=species:S:1:pos:R:3:initial_charges:R:1:energies:R:1:forces:R:3 original_dataset_index=104 energy=-58459.5332796838 pbc="F F F"
Pb       9.76324272       9.56465054      12.31260967      -0.12832518    -605.88005294       0.60446832       0.04115522       0.11165258
Pb       2.45121431       2.66006684      12.22827530      -0.11409583    -605.60869393       0.98104759       0.40664661      -0.05335685
Pb       3.88874745       8.54277325      12.65739346      -0.14451906    -606.14672823      -0.20986154       0.49996552      -0.32067894
Pb       8.83573151       3.52319884      12.98868561      -0.12962733    -605.95879865      -0.19692504      -0.08927467      -0.28631593
Pb       9.50909996       8.78485012       6.20097589      -0.12961107    -605.90886907       0.12303484       0.83581234       0.08382096
Pb       2.88089371       3.18664837       6.05896616      -0.13821144    -606.10957497       0.13949420      -0.33956536       0.20908077
Pb       9.45607185       2.62413406       6.36426163      -0.11363737    -605.52102799      -0.11887574      -0.29946630       1.57688453
Pb       3.32639146       9.54390049       6.28479910      -0.12659952    -605.89458854       0.32056444       0.55274784       0.24169410
I       10.42777443       8.42029953       9.29484081       0.08015731    -608.44707400       0.05413920       0.34657903      -0.22991438
I        3.59408689       2.90486884       8.99057102       0.07505884    -608.34072709      -0.10203506      -0.11997164       1.49446162
I        9.22125149       2.89902282       3.60492706       0.09782867    -608.62280334      -0.12363509       0.17632139      -1.76255481
I        4.53463984       9.08425617       3.11060214       0.09019508    -608.38321549      -0.73374657       0.50783936       0.83121023
I        2.46119094       3.68812943       3.09061551       0.07981504    -608.47103258      -0.04353997      -0.18029500      -0.43910276
I        9.71775913       9.45422649       3.00777030       0.09239975    -608.57654797       0.03672219       0.01964942      -0.03026274
I        3.06076837       9.86931515       9.78290844       0.07353127    -608.28675284      -0.45193419      -0.66169306      -1.06984501
I        9.59327412       2.98586583       9.68272781       0.09449412    -608.46098435      -0.67915659       0.65785049       0.09661409
I       -0.43655807       2.29468036      12.62900639       0.10259676    -608.56623268      -0.10359191      -0.11853485       0.64128667
I        6.92107201       8.55270004      12.33229637       0.08364230    -608.42373148      -0.56884238      -0.34904471       0.03762924
I        9.79705048       6.26396847      -0.37129092       0.07297548    -608.39861801       0.44744956       0.04726069       0.45630616
I        4.01420879      11.90611362       0.24487548       0.10091358    -608.56094273      -0.17545128       0.61839327       0.01196271
I       12.55183220      10.18954563       6.03464174       0.08509439    -608.48347634      -0.34751215      -0.62330206      -0.15891474
I        6.21617985       4.17052221       6.45890379       0.08993292    -608.45777643       0.23430764      -0.24580545      -0.66413455
I        2.72444820       6.69861174       5.96257639       0.09957570    -608.57021156       0.03646420      -0.75108337       0.39252756
I        7.74096346       0.08396534       6.40348482       0.06641142    -608.31196432       1.20374090      -0.16967546       0.05387927
I       12.71507072      10.33484840      -0.34937999       0.08191040    -608.47152236      -0.12201970      -0.14447960       0.61456698
I        5.67800856       3.66197491       0.07153271       0.08503739    -608.56100978       0.38416922       0.21586984       0.20845066
I        2.38889003       6.06005955      12.79302692       0.05959203    -608.13554899      -0.43523108      -0.65600649       0.16202159
I        8.44671822       0.40564218      12.73368931       0.09361025    -608.58347268       0.10979391      -0.42285532      -0.43160536
I        0.38649026       1.23816919       6.72162724       0.08580972    -608.42272065       0.04586450       1.27206567      -0.14901942
I        6.38239145       8.49968815       6.87297678       0.09320870    -608.56109766       0.16359968       0.01151156      -0.20963244
I       10.58929920       6.01489687       6.02149391       0.10575958    -608.58149510      -0.23847156      -0.57630865       0.28056917
I        4.81192064      12.73066139       6.41581821       0.06928574    -608.28511142      -0.91973238      -0.26703057      -0.20616718
N        6.03848457       5.70840311       3.23823094       0.05122752    -610.34521634       1.19184492       1.01738869      -0.45279381
N       12.28912163      12.82316208       3.06143618       0.05218851    -610.44469261      -1.95762453      -0.34780410      -0.57422146
N        1.72223210       5.56187344       9.82729816       0.01278010    -610.55657691      -0.37126808       1.20765534      -0.81368536
N        5.25178099      -0.26737654       9.78581333       0.04794282    -610.37986428      -0.35824768       4.18994130      -1.24640565
N        8.25485516       5.92304945       8.41061020       0.04959420    -610.49530202      -3.55597093      -2.89266536      -2.21743476
N       -0.80853683       0.36360765       9.86926556       0.05226680    -610.37663697       3.96315589       0.97787702      -2.35532494
N       12.59707737       6.80140734       3.72197533       0.04932038    -610.36334552      -0.90700092       1.36200781       1.11521267
N        6.66835260      11.45478344       2.29441166       0.04893999    -610.42892029       0.48893773       3.65685739      -2.49581677
C        7.12189770       5.76849461       9.32489014      -0.17208122    -610.07876666       0.42276551       1.60666502      -0.07603793
C       10.98018074      12.08018494       8.92909908      -0.16536601    -609.96850224      -0.16589077       0.20518347      -1.04426429
C        1.14334714       7.92639589       3.09953976      -0.16449355    -610.08046300       0.53682997      -2.37977999      -2.12663486
C        5.65994692       0.31935936       3.02254558      -0.16289707    -610.09343831      -1.13749008      -0.60044195       0.70719298
C        6.88731003       6.96297503       3.01850057      -0.16937549    -610.12882350      -1.78254164       0.31453812      -2.23049195
C        1.00676072       0.18526220       3.29494214      -0.16557939    -610.08101381       0.27834330      -1.31750500      -2.40792440
C       12.79361248       4.81052923      10.05115891      -0.16466750    -609.97643920      -0.02315439       2.24075860       1.53444959
C        6.34187651      10.77819252       9.69194126      -0.17039798    -610.08215177       0.05208085      -2.12592801       1.35336170
H       12.07660389       5.56120682      10.41054821      -0.00112592    -609.24169464      -0.33860600      -0.13780976      -0.13327355
H        5.74577904       9.92152596       9.31886578      -0.00292653    -609.30120209      -0.09449078       0.68099391       0.20217178
H       12.35678864       4.37671709       9.19188881      -0.00253673    -609.19077889      -0.30521160      -1.07864879      -0.78635102
H        7.19195843      10.78481007       9.09907818      -0.00216759    -609.19505324       1.64005530       0.77991450      -1.81260746
H        0.58104712       4.21275473      10.96414375      -0.00385158    -609.17411862       0.06311185      -0.77119774      -0.46348601
H        6.79173517      10.44359970      10.65342999      -0.00238611    -609.29532040      -0.92404044       0.51313781      -0.17567254
H        0.68583846       7.95833921       2.05908275      -0.00253960    -609.40321858       0.88376044       0.67818858       1.05763836
H        4.69224787      -0.16994245       3.32135224      -0.00082914    -609.38174489       0.58716658       1.08605966       0.43873340
H        2.25370407       7.66035318       3.03426170      -0.00339307    -609.33431412      -1.64886610       0.05589888       0.14782289
H        5.42426252       1.06387496       2.25442910      -0.00317123    -609.35537646       0.18511356       0.21286477       0.21275426
H       13.34665394       8.81552505       3.66264892      -0.00385995    -609.23588445      -0.41057196       0.99161884       0.53059766
H        6.26585388       0.74528641       3.90751815      -0.00356914    -609.36909625      -0.72050375      -0.97005773      -1.47238788
H        4.20487022       7.91098118      10.67307186      -0.00781970    -608.02277133      -0.19165794       0.26945238      -0.07300605
H        4.21987820      -0.30320942       9.70073605       0.00108951    -609.38915927      -0.02623029      -0.85354121       0.73626737
H        2.11424565       5.28800869       8.93617058       0.00163147    -609.17931253       0.48169895      -0.01261150      -0.27679439
H        5.45801497       0.27900338      10.70982075       0.00019525    -609.41989304      -0.35133745      -0.78383084      -1.87071083
H        1.49762547       6.57921696       9.72935200       0.00074079    -609.19727982       0.38602356      -0.86198906       0.18135452
H        5.30247259       0.41230375       8.82873821       0.00103619    -609.31973572       0.71066726      -1.56815898       2.21092245
H       12.14344215       7.17638779       4.66919136      -0.00033234    -609.40090354       0.34303798      -0.43570722      -2.08043140
H        6.98951960      10.76861668       2.87895560       0.00086968    -609.34145939       0.43767369      -2.84066657       1.97374123
H        0.83944768       6.01512289       4.20583439       0.00052609    -609.32591569      -0.37789016       0.37860968      -1.57935284
H        7.56970072      11.84198475       1.88662088       0.00140683    -609.44940171      -0.63631493      -0.43815725      -0.36751998
H       11.80637264       6.60488796       2.99727273      -0.00194854    -609.37169466       1.53667499      -0.45162832       1.85948198
H        6.00334263      11.16401863       1.47838509      -0.00049993    -609.32529104       1.01182588       0.14148944       1.35340831
H       -1.16405594       1.20462596      10.24941063       0.00335328    -609.24353827      -0.96469879       1.34037868       1.62427933
H        8.63334656       6.78126001       8.51435375       0.00084759    -609.31279842       2.06044552       3.86984485       0.26722025
H        8.95273018       5.21276951       8.45272255       0.00125452    -609.40422441       1.03157101      -1.02707414       0.63127597
H        0.12398863      12.07662201      10.45496368       0.00240014    -609.29370819       0.06188944      -1.78319594       2.22510247
H        0.03739196       0.74269038       9.35694027       0.00267473    -609.46031638      -0.59499850       0.11031266      -0.52051532
H        7.77917862       5.77784014       7.45143986       0.00061557    -609.39629495       0.80028732       0.35683606       0.63096996
H        6.40346575       6.54109716       9.01214504      -0.00265738    -609.42720982      -0.05783838      -0.25063160       0.47879358
H       10.34801674       0.79069197       8.34281349      -0.00319935    -609.25376639      -0.84002346      -2.50810077       0.80095492
H        7.49448586       5.88183832      10.30750847      -0.00339242    -609.32780988       0.04763269       0.33758990       1.32890381
H       10.27077675      11.59501076       9.67346382      -0.00456558    -609.26233252      -0.32345535       0.35463917      -1.84602300
H        6.76098633       4.81414270       9.17579460      -0.00283661    -609.27930357      -1.22021116      -2.10685191      -0.09749891
H       11.56948566      11.40120983       8.21582603      -0.00397104    -609.25549873      -1.17987773       0.41853480       1.06526101
H        6.37346745       7.56272411       2.19294333      -0.00111140    -609.35350449       1.00096403      -0.86873570       1.00089384
H        1.21931839       0.44973487       4.28394699      -0.00362075    -609.24358654       0.66084658       0.08628887       1.60441152
H        7.87979174       6.77437878       2.73713946      -0.00359731    -609.30573333       1.46310192      -0.85068016      -0.64141252
H        2.05845737      13.03361988       2.60174346      -0.00326235    -609.36056376      -0.34540932      -0.07172437       0.16302239
H        6.90609074       7.58052921       3.87120271      -0.00326179    -609.30503908      -0.21103406       0.49862977       1.47595483
H        1.11146355      -0.92345941       3.05074239      -0.00386804    -609.43246994      -0.00281555       1.24570015       0.58273862
H       11.94577026      12.40224171       2.13434887      -0.00046461    -609.52004125       0.36186327       0.69293157       1.12085959
H        6.68027925       5.12854481       3.90000653       0.00043431    -609.37349983      -1.75998828       0.03253561      -1.07976277
H       11.99951553      13.84065437       3.08272719       0.00074468    -609.46951824       0.71519966      -0.61203348      -0.28286259
H        5.77771330       5.29886007       2.20197177      -0.00105398    -609.27562701       0.35803080       0.24176914       2.73478674
H        5.24432325       6.13584566       3.80547690      -0.00015830    -609.41250115       0.28053359      -1.28208441      -0.76437766
H       11.29340935       0.12530537       3.82244611       0.00054591    -609.51809693       0.42782926      -0.11912653      -0.47856968
96
Lattice="12.299111366271973 0.0 0.0 0.397482693195343 12.292691230773926 0.0 0.0 0.0 12.580405235290527" Properties=species:S:1:pos:R:3:initial_charges:R:1:energies:R:1:forces:R:3 original_dataset_index=494 energy=-58451.70884862256 pbc="F F F"
Pb       9.62332439       9.10424519      12.82606316      -0.14615238    -606.18476453       0.47060820       0.05509143      -1.16111925
Pb       3.41885424       3.22933650      12.53180504      -0.13253610    -605.90796146      -0.64477811      -0.28580551       0.81843048
Pb       3.41033697       8.96187782      12.54540253      -0.13444924    -606.00457222      -0.13688723      -1.00361243      -0.03871007
Pb       8.43468761       3.05645013      12.69057941      -0.12675112    -605.92586082       0.21433988       0.09331191      -0.16749385
Pb      10.44199181       9.04478073       6.16991377      -0.15713298    -606.35500794       1.13453230      -0.71756313       0.11905458
Pb       2.94105530       2.90283227       6.32952642      -0.14418393    -606.18382152      -0.10787405       0.50456540      -0.29061909
Pb       9.14410210       2.85835934       6.38002348      -0.13266002    -605.99045030       0.06272711       0.21464952      -0.16129168
Pb       3.30145478       9.28741837       6.25844717      -0.12446915    -605.77774304      -0.53829806      -0.71796370       0.45931994
I        9.13409615       8.92018032       8.94872379       0.07021336    -608.31598961       0.30674291      -0.01125179       0.61262246
I        3.62337589       2.62003541       9.66325665       0.09377787    -608.59374721      -0.14171683       0.27855342      -0.46387098
I        9.76377392       2.96390557       3.13329983       0.09650026    -608.58504040      -0.03980594      -0.23441991      -0.21277513
I        3.68021226       8.97354507       3.05133176       0.08485538    -608.46332114       0.47997680       0.51553776      -0.12762439
I        2.01158571       3.28299642       3.29615617       0.08617933    -608.37136298       0.43161515      -0.20411614       0.26113812
I        9.60758209       9.26145172       3.08404112       0.08392581    -608.46750197      -0.10639010      -0.01564652       0.12996981
I        3.87771297       9.50927830       9.43601418       0.08398029    -608.41409237       0.20900567       0.25251695       0.03107425
I        8.90699387       3.51225305       9.46858406       0.08061254    -608.43655514       0.21681017      -0.28821701       0.39108245
I        0.19826362       1.88535047      12.81757641       0.15217477    -608.93634300      -0.74530358       0.63346063      -0.12916006
I        6.89824677       8.16099167      12.01145935       0.06274582    -608.18900593      -0.39715085       0.52954380       0.89729028
I       10.58779716       6.36858654      -0.71375686       0.06368180    -608.28666090       0.15366770      -0.15575011       0.15210495
I        4.09604073      11.86800289       0.19428216       0.13161637    -608.99753180       1.09886110       1.37263897      -0.15238243
I       12.86829281      10.15893745       7.78236246       0.06636965    -608.24906652       0.53060006       0.04651994      -0.04831973
I        5.98040056       3.82925987       6.38364935       0.08391076    -608.43012277       0.35938307      -0.30352634      -0.01363209
I        2.99722672       6.08238697       5.38561249       0.07470003    -608.27699315      -0.05628978       0.08251425       0.75626277
I        9.39158630      -0.19894356       6.26510859       0.09693688    -608.52378410      -0.31275755       0.29698228      -0.44827459
I       12.84892750      10.20626259       0.21146241       0.08451302    -608.47566475       0.13106581      -0.37151981      -0.11376473
I        5.78880548       4.92734623       0.34707737       0.08740065    -608.47639531       0.93845019      -0.45558444      -0.00450566
I        2.19689059       5.88851547      13.18509388       0.06471208    -608.25775350      -0.18914203       0.26708136      -0.72784221
I        7.79674196       0.02908452      11.96728039       0.10631640    -608.65823633      -0.36204799       0.24161682       0.26455222
I        0.04394859       2.01951265       6.56977558       0.07797980    -608.45630635      -0.34711120       0.33492765       0.20579255
I        7.15368032       9.05749607       5.88578892       0.11831941    -608.84167520      -0.68115886       1.81486150      -0.51298805
I        9.16526699       6.03132772       5.73858213       0.09078811    -608.50983902       0.32177275      -0.22189472       0.09322101
I        3.92664289      12.16749096       6.10659790       0.09433338    -608.57494951       0.16740642       0.28530624       0.00993160
N        6.38947010       6.61823511       3.59067035       0.01112707    -610.38748727      -1.50494120      -1.05312778      -1.37061744
N       12.90440750      12.73073196       3.26854062       0.04939485    -610.37146905      -0.34783501       0.96995600      -2.13563075
N        0.74746490       7.06790590       9.28617382       0.01164910    -610.27206101       2.30514380      -3.09562989      -0.92214239
N        5.67993355      -0.04086115       9.19579506       0.04594229    -610.48395455       1.30920097       1.89409371       1.48831368
N        7.06890774       6.03787041       8.79896450       0.01186203    -610.23523455      -2.13658214      -1.99394557       1.58966975
N        0.18713784       0.54261523      10.68617535       0.00980758    -610.49949126       0.06625771       0.48347868      -2.27669379
N       12.09300995       6.30687952       3.65455532       0.04869569    -610.48096042       1.31844855      -0.07531179       0.56404630
N        6.71744633      12.92840481       4.29197216       0.00754200    -610.30327858       0.93759142       3.12133706      -1.34988593
C        6.17665386       6.70199585       9.46001339      -0.12364162    -610.13880564       0.10119669       1.64887866       2.11549707
C       11.63892937      12.69150066       9.87404442      -0.16422628    -609.99667543      -0.91033895       0.54719738       2.71413751
C        0.70029294       7.51321363       3.24899411      -0.17028023    -609.99258711      -1.31775143      -0.70736294      -1.05288271
C        5.34635353       1.68736255       3.36149955      -0.15568015    -609.79232253      -0.96722620      -5.83336644       1.02156462
C        5.98762894       5.36162281       3.39551044      -0.11709014    -610.07983991       0.12747091       2.23643616       0.90064270
C        0.05713443      -0.92718768       3.74538302      -0.16900589    -610.00052164       2.05532083      -0.23927297       1.97958438
C       13.24559498       6.01540375       8.50712395      -0.11801253    -610.17872322      -2.05834955       1.87129596       1.41865356
C        7.18809366      12.44549656       8.19214058      -0.16612189    -610.10264915      -0.84696985      -0.07988858      -0.15009397
H       16.22408485       6.54605436       8.79851627       0.01088369    -608.94374034       0.91911098      -0.65447747       0.27507405
H        6.87474298      13.23086929       7.48299074      -0.00504479    -609.38686606       0.13388089      -0.27826187       0.21622658
H       12.56942272       5.36757135       7.98603201      -0.00343258    -609.00725402      -1.64247349       0.82027441      -0.54740625
H        8.07094097      12.73131466       8.73341560      -0.00513624    -609.34412937       0.36909503       0.34543013       0.40157300
H        1.81537890       5.52051783       8.45943260      -0.00691083    -608.76829456       3.76430413      -1.27117589       0.63527268
H        7.42749882      11.50616550       7.68177891      -0.00427524    -609.33551578      -0.46705337       0.06531838       0.13481295
H        0.73095131       8.17148304       4.11382389      -0.00240473    -609.32791634      -0.30170064       0.00493756       0.33211763
H        4.33151102       1.31167543       3.77974653      -0.00332085    -609.18123877       1.34644029       1.14106609      -0.44269965
H        0.40095848       8.06156445       2.32214522      -0.00435175    -609.33323108      -0.37745334      -0.71318211       0.67308755
H        5.24161768       1.37588501       2.28999615      -0.00223324    -609.16153706       0.90349726       0.37482913       0.74375579
H       13.97319221       7.11877918       3.08620691      -0.00326295    -609.18707041       0.66223184      -0.42417482      -0.05011164
H        5.56676865       2.66731524       3.58586907      -0.00737181    -609.00144677       0.39582141       2.29899856       0.30011874
H        5.78609228      12.34822464      12.22069073      -0.00103987    -608.10625635      -0.44677091      -0.49277706       0.40487259
H        6.02920580      -0.63601160       9.97176647      -0.00014933    -609.49035506      -0.26822895      -0.11088390      -0.39974926
H        1.45735872       7.32986736      10.01571369      -0.00205284    -609.14028943      -0.76768239       0.09381533      -1.02061337
H        5.41162729       0.91278261       9.68841839       0.00019040    -609.46615606       0.38924641      -1.61535153      -1.09216532
H       -0.07396947       7.57193947       9.13508892      -0.00033423    -609.07793654      -1.95782353       1.36423509       0.41717952
H        4.82990265      -0.41365108       8.80747223      -0.00018221    -609.45785811      -0.72476081      -0.51673787      -0.48935645
H       11.65000820       5.70893335       2.95440197       0.00197660    -609.46088766      -0.20576222       0.60888838      -0.77313942
H        7.73019171      10.75428009       5.34865904      -0.00436723    -608.14004261      -0.49485867      -1.28770303       0.54255501
H       -0.92221254       6.56452274       4.36815739      -0.00077502    -609.46796267       0.10422956       0.13686989      -0.17239453
H        7.76466990      13.18341064       4.09743309       0.00279509    -609.17617300      -1.99177624      -0.47913711      -0.23132150
H       12.71640778       5.58421612       4.11712646      -0.00043764    -609.46564659      -0.24247019       0.92091891      -0.07237671
H        6.63899231      13.49814129       5.16827869      -0.00010999    -609.09028059      -0.17363019      -0.70460795      -0.29289086
H        0.08311300       2.92252326      14.14898014      -0.00152997    -608.10777719       0.14045874       0.08373781      -0.00694745
H        7.99272203       6.46233273       8.68432331       0.00168513    -609.05566941       0.28337358       0.21203562      -0.60895607
H        9.19414997       5.56591129      14.15247345       0.01320201    -608.97977590      -0.10882150       0.20332174       0.06824417
H        0.90217131      11.87450981      10.78661823       0.00171933    -609.12406916       0.86816854       0.08800701       0.01814711
H        0.87909436       1.15897727      10.20162487       0.00173715    -609.16505749      -0.35852521      -0.94153916       0.14186585
H        6.93868923       4.96797609       8.86703968       0.00110124    -609.09080487       0.88009189       1.57038073      -0.61393166
H        6.35184145       7.76198721       9.75808525      -0.00216017    -608.95629416       0.04701902      -0.43335266      -1.37902928
H       11.27035236       0.28211942       8.81900883      -0.00305310    -609.18205665       0.67796891      -0.11456475      -1.06101935
H       15.57742691       6.76815844      -3.97885132       0.00773521    -608.91504000      -0.85787277       0.22100560      -0.46891622
H       10.94528961      13.52814293      10.09986019      -0.00326129    -609.29728950       0.32926665      -0.16652157      -0.14278973
H        5.39043760       6.34104824      10.20232773      -0.00453875    -608.91915711       0.45384089      -0.62628085      -1.71054561
H       11.17947102      11.81060314      10.33567905      -0.00314795    -609.30796099      -0.39467217      -0.14027722      -0.35822315
H        8.69740677       5.95852518       1.97764492       0.01132763    -609.04433787      -0.11805893       0.02435958       0.07977627
H       -0.67521769      -1.16535366       4.49981642      -0.00429509    -609.27092418      -0.53608827       0.63003337       0.15119581
H        4.91525793       5.07922649       3.25524020      -0.00536340    -608.95239050       0.91097400       0.48301355      -0.30540443
H        1.48065126      11.26835251       4.20144081      -0.00098452    -609.41618707      -0.90886884      -0.58842532       0.21683570
H        6.75628996       4.65777206       3.63508511      -0.00508833    -608.99953849       0.18778072      -0.85453643       0.07199488
H        0.05744714      -1.63938618       2.97491455      -0.00496152    -609.24798099      -0.40432452      -0.65330979      -1.41825501
H       12.98209381      13.42064476       4.00581837      -0.00069238    -609.40841723       0.76707835       0.28004713       1.32934303
H        7.28477907       6.82740164       4.05130768       0.00223559    -609.17431994       0.17194532      -0.17582159      -0.33173739
H       12.16011429      13.29580116       2.70866203       0.00120408    -609.41250946       0.71465195      -1.76171785       0.18379340
H       12.50362015       8.13364220       5.62251139      -0.01237112    -607.98525680      -0.92195406       0.03162732       0.44501928
H        5.83222437       7.42241669       3.20316029       0.00202648    -609.20352939       0.15646620      -0.56780845       0.82137333
H       13.43044758       0.37414604       2.73680234      -0.00134906    -609.44664040      -1.45680172       1.04189893       0.42410981
96
Lattice="12.299111366271973 0.0 0.0 0.397482693195343 12.292691230773926 0.0 0.0 0.0 12.580405235290527" Properties=species:S:1:pos:R:3:initial_charges:R:1:energies:R:1:forces:R:3 original_dataset_index=370 energy=-58454.17723643922 pbc="F F F"
Pb       9.73825455       9.35301208      12.39252377      -0.14592403    -606.31229685      -0.14033594      -0.19491055       0.05451609
Pb       2.73029780       3.13713765      12.28689194      -0.14072630    -606.17345002       0.27872486      -0.48499806       0.11842694
Pb       3.46820450       8.73101139      12.56905174      -0.13814530    -606.12718603       0.06250606       0.26782069       0.43800898
Pb       8.68955898       3.61159039      12.77237034      -0.13826577    -606.02844849      -0.72588756      -0.47414223      -0.12712458
Pb      10.12143135       8.85325813       6.18318081      -0.14220178    -606.16086529       0.18044344      -0.47664776       0.38301687
Pb       2.92088556       3.28041172       6.36391354      -0.13973983    -606.06245983       0.33160864      -0.79642719      -0.31599891
Pb       9.30386066       2.69705820       6.56383276      -0.14760236    -606.22553474      -0.35110562       0.23722425      -0.00597440
Pb       3.23337555       9.29985619       6.27124834      -0.13366759    -606.00397615      -0.00854969       0.32984384      -0.22989528
I        9.63159466       8.63014317       9.32254314       0.06756516    -608.30371237      -0.20689624       0.07170153       0.34042434
I        3.80489945       3.39678478       9.38635349       0.08868669    -608.52383017      -0.12736010      -0.29754147      -0.10344928
I        9.41354370       2.73508024       3.30111861       0.09385702    -608.56359931       0.22151735       0.00567078       0.06182441
I        4.34876776       9.25656128       3.10949969       0.06550178    -608.31037329      -0.30264197      -0.25569622      -0.01772648
I        2.95108414       2.74196792       3.02098632       0.08431749    -608.43051116      -0.32654945       0.47091431       0.05566100
I        9.47917843       9.55322742       3.01204848       0.07999411    -608.39262780       0.08297443      -0.14115856      -0.44787634
I        3.68273377       9.01666546       9.41484070       0.07450563    -608.37257886       1.38992214       0.58174359       0.21435999
I        8.99882984       3.43711948       9.73510361       0.07553899    -608.42116319      -0.17627000       0.01863401      -0.24369036
I       -0.71142131       1.99301898      12.80349255       0.14449845    -608.98670720       0.87305430      -0.15327935      -0.32199604
I        6.56623793       9.04985046      12.16182995       0.07156815    -608.38093389       0.09421488      -0.24946243      -0.03451322
I       10.15589523       6.10090828       0.00434683       0.08828871    -608.51887706       0.42123113       0.69452888       0.03265111
I        4.63343048      12.53546715      -0.10259510       0.10402846    -608.65619256       0.08342878      -0.14878357       0.12571385
I       12.73418427       9.99940777       7.25018358       0.08593570    -608.41187339       0.76675039       1.38008929      -0.75253896
I        6.12423563       3.03849363       6.08239126       0.07420449    -608.31301312      -0.07048087       0.64812735       0.29576339
I        3.40047073       6.19061327       5.78121185       0.08798048    -608.49010044       0.11188872       0.34106188       0.01250241
I        9.13222885      -0.31275097       6.17293072       0.07701504    -608.37151652       0.09880781       0.33721749      -0.08634863
I       12.86111832      10.05167961       0.01060382       0.08103441    -608.49303006       0.06483451       0.03814271       0.29337425
I        5.68115282       4.16852283       0.44883680       0.07235119    -608.37925083      -0.06276657       0.26661373      -0.06817041
I        1.92489660       6.08475828      12.01010609       0.09001863    -608.54739104      -0.06019647       0.17184401       0.17867356
I        8.18674374       0.18168370      12.09916306       0.13251871    -608.99534686      -0.04257129       0.11850431       0.07447545
I       -0.02965206       2.34479284       6.83538294       0.07643379    -608.42113246       0.31826301      -0.25459682      -0.16372965
I        6.69198847       9.40065289       6.62247896       0.16577935    -609.08249528      -0.38449019      -0.92893869       0.32587782
I        9.75975990       5.78127098       6.07743359       0.08134413    -608.42803062      -0.17332571      -0.27635386       0.03905765
I        3.98920679      12.37194157       6.39659262       0.08259122    -608.45622948      -0.35960940      -0.13934943       0.14594679
N        6.50601768       6.20918179       4.00173807       0.00959240    -610.26460879      -1.77022278      -0.55522128      -0.83826552
N       12.15998077      11.69483566       3.46486783       0.04956928    -610.40245601      -1.62048242       1.85854438       0.43057078
N        0.97698689       5.49910164       8.15279388       0.01464718    -610.31477331      -1.10886018      -0.75686458       1.73871596
N        5.43794060      -0.31169602       9.26676273       0.04596876    -610.53630974      -0.23460294       0.44522977       0.60685118
N        6.49571419       6.76174784       9.05446720       0.01271223    -610.30989262      -0.13693800      -1.46901763       0.19277258
N        0.73632485       0.38196066      10.12270641       0.00705239    -610.60263663       1.01963726      -0.96699207      -0.22006426
N       12.50152588       4.82708549       2.54995298       0.04837765    -610.47396134       0.78583818       0.77187851       1.27687854
N        6.78295040      11.87116909       3.15527678       0.00641785    -610.57580257      -3.76167937      -1.93789804      -1.35276130
C        5.89648676       5.74937725       9.61308956      -0.11981632    -610.12093302      -0.05276297       0.46147495       1.65611282
C       11.98705864      12.51726055       9.95814133      -0.16404556    -609.97729845      -0.04535256       2.38997855       1.02177498
C        0.51715833       6.08890915       3.37661338      -0.16622464    -610.11128432      -0.08340291      -0.66984510      -0.72360069
C        5.94271421       0.91508090       3.50466180      -0.15892729    -609.78928699      -0.65534915      -0.44114375       0.38797936
C        6.15989685       5.00236368       3.67099237      -0.12113369    -610.15648371      -1.21505581      -0.50737737       0.01233922
C        0.85946900      -0.03776730       3.45252514      -0.16742943    -610.07616041       0.16695051      -1.74855205      -1.08643781
C       12.23962975       5.29239750       8.95511723      -0.11348931    -610.11353971      -0.31353607      -0.76599375      -0.05569100
C        7.09385109      12.43505955       8.62407875      -0.16742875    -610.07905240      -0.11255190       0.94848346       0.46053518
H       13.30543518       7.92053318       8.76515484       0.00824793    -608.76744171       2.48658364       0.69660695       1.69621861
H        6.96126366      12.43508530       7.55527401      -0.00532256    -609.32970070      -0.29371596      -0.08095880      -0.47494706
H       11.23140907       4.91143322       8.58434391      -0.00385237    -609.03824906       1.20627068       0.94204640      -0.05351960
H        7.34207249      13.48198891       8.91571140      -0.00441389    -609.39954212      -0.20050044      -0.70796455       0.11751978
H        0.02085578       5.24077368      10.07004070      -0.00326753    -609.03577033       0.48912603       0.32263940      -1.02898219
H        7.87986898      11.74558926       8.86242485      -0.00444439    -609.35709935       0.50446607      -0.25182967       0.33176532
H        0.87403083       5.80966377       4.37383842      -0.00434384    -609.37054721       0.17056188      -0.10445183      -0.39481774
H        5.11982775       0.80781168       4.26401186      -0.00227257    -609.11536918       0.45598184       0.02067979      -0.63239015
H       -0.43857381       6.54173946       3.48794985      -0.00669865    -609.32854139      -0.92308561       0.78341688       0.21702624
H        5.54135180       1.70460689       2.80669284      -0.00276730    -609.11653735       0.84523697      -0.95310381      -0.13473435
H       13.48094654       6.77751350       2.83106494      -0.00480223    -609.39507268       0.04117334      -0.52057908       0.15140752
H        6.75429058       1.28709710       4.10893440      -0.00248208    -609.07065328       0.37421012       0.59168033      -0.08260130
H        6.87941551      12.45612717      12.51454735      -0.00097066    -608.11580832      -0.22639417      -0.02674588       0.00362891
H        5.23807335      -0.03348301      10.25855446      -0.00011691    -609.46624533       0.18459960       0.78061926      -0.27951314
H        1.95878363       5.42827511       8.46821690       0.00033589    -609.13251071      -0.51689081       0.64672033       0.09246716
H        4.61996841      -0.07278635       8.67486763      -0.00087238    -609.47427173      -0.07446292       0.15697266      -0.04175571
H        0.81877100       5.51881409       7.16130638       0.00217865    -609.18901321      -0.08862358       0.06035537      -0.51167442
H        5.38560581      -1.30809247       9.41231537       0.00054210    -609.49537429       0.17206097      -1.20062532      -0.47970579
H       12.13871193       5.09576845       1.61915433       0.00012365    -609.44341869       0.09392624      -0.09229933      -0.03517767
H        7.08570004      10.63414955       5.67611265      -0.00313715    -608.11548421       0.17771025       0.70906279      -0.69764649
H       -0.52234757       4.29793167       3.06969500       0.00201364    -609.50545093      -0.11854268       0.00164377      -0.24181190
H        6.43574095      11.30555630       2.29093790       0.00523588    -609.04010546      -1.99324304       1.29300348       1.68660692
H       13.36113644       4.20616817       2.52096653      -0.00147430    -609.44767180      -0.26579552       0.16685300      -0.22750317
H        7.60011864      11.66448116       2.72424173       0.00570751    -608.92331715       5.16326309       0.99238243      -0.29764354
H       -1.21821988       3.07419801      13.93759823      -0.00524929    -608.06201226      -0.01147864      -0.09167313       0.32792904
H        6.19805574       7.70003557       9.29967117       0.00241675    -609.19082550      -0.17928964       0.45884722      -0.12552069
H        9.17201328       6.16920376      15.67910194       0.01145359    -608.96916847       0.09040015      -0.32984600      -0.09488715
H        1.50981379      11.74458218      10.35431194       0.00140338    -609.23557155      -0.15871909       0.11558845       0.56847855
H        1.29757583       0.52111602       9.25935555       0.00195658    -609.22424175      -1.08927252       0.51525286       0.04565617
H        7.35873508       6.61945963       8.52874660       0.00265946    -609.22414539       0.12829916       0.17767171      -0.03620269
H        5.07876348       5.94748163      10.34946060      -0.00368654    -609.11834255       0.45193683       0.05164066      -0.80440954
H       11.22726631      -0.55378640       9.35341072      -0.00213863    -609.17203844      -0.39777846      -1.36423942      -1.00701450
H       14.10256290       8.26880836      -3.42011905       0.01059986    -608.74495722      -3.26312938      -1.75510786      -1.19722170
H       11.54824066      13.46830845       9.60209179      -0.00289145    -609.26539734       0.22942797      -0.21091162      -0.25345776
H        6.31807756       4.73877096       9.67267704      -0.00343935    -608.98377921       0.11371448       0.34452410      -0.67469451
H       11.50980663      12.44332886      10.95811176      -0.00173109    -609.22293555       0.34424849      -0.44063701      -0.31203978
H        9.61474609       6.76716089       3.13607621       0.01154798    -608.97494620      -0.17392835       0.18977851      -0.10909479
H        1.34301710      -0.80734551       4.04886532      -0.00204006    -609.39676747       0.80463597       0.08245523       0.01427308
H        5.09471035       4.78436184       3.56510019      -0.00370726    -609.11082263       0.00498641       0.11272061      -0.11902395
H        1.36283362      13.17711735       3.94465709      -0.00445753    -609.23417467      -0.28171865       1.28766736       0.62256595
H        6.80323362       4.14471531       3.42596698      -0.00405824    -609.05367759       0.38595891       0.72938812       0.33349571
H        1.32571054      -0.03182629       2.43588400      -0.00366479    -609.41603751      -0.67809759       0.04472971       0.64328071
H       12.02732754      11.37974358       4.47983646      -0.00197156    -609.42479271      -0.36464566      -0.27658797      -1.53198520
H        7.47976112       6.32018471       4.12666941      -0.00096020    -609.09364079       1.39139812       1.09953498       0.33637594
H       12.11012173      10.98430347       2.71418500      -0.00120531    -609.41435137      -0.23844350      -0.48920338       0.59980934
H       11.45261478       7.90106535       7.56760502      -0.01002587    -607.98272939      -0.74058069      -0.44184999      -0.37022327
H        5.76931238       6.98910952       4.00215721       0.00084606    -609.12509528       1.20069557      -0.86781107       0.26201425
H       10.89028263       0.06463823       3.26507282       0.00006996    -609.52373479       2.04470156      -0.93213736       0.42072733
96
Lattice="12.299111366271973 0.0 0.0 0.397482693195343 12.292691230773926 0.0 0.0 0.0 12.580405235290527" Properties=species:S:1:pos:R:3:initial_charges:R:1:energies:R:1:forces:R:3 original_dataset_index=252 energy=-58451.08717641831 pbc="F F F"
Pb      10.04041004       9.66431904      12.04030323      -0.13469015    -606.08507723      -0.43335341       0.12587304       0.83063490
Pb       2.38583255       2.87145162      12.24970055      -0.11958206    -605.80161147       1.03247301       0.09378431      -0.05908459
Pb       3.60303569       8.76216412      12.53374767      -0.13369948    -606.01781868       0.26266793      -0.27508704      -0.08262492
Pb       8.59244919       3.66164088      12.66543293      -0.12639949    -605.70723178      -0.14627861      -0.35588417       1.39764145
Pb       9.69591904       8.69019222       6.24503469      -0.13249305    -605.88682235       0.00125514       0.09253122      -0.67599541
Pb       2.89861274       3.52719688       6.15877151      -0.13704473    -605.99101962      -0.08392280      -1.46315610       0.38467352
Pb       9.33688736       2.73962283       6.70905352      -0.13736075    -606.01161751       0.37780484      -0.08405619       0.34341286
Pb       3.42793322       9.42230797       5.99459410      -0.11801378    -605.63478290      -0.33842260       0.59112337       1.23123412
I       10.00153542       8.57775402       9.17733192       0.09208103    -608.60073140       0.10044432      -0.11345118       0.24982390
I        3.67676044       3.34154129       9.24147224       0.08761160    -608.56977241       0.00035895       0.05269735       0.65135730
I        9.42508316       2.45763564       3.82745337       0.08873069    -608.48137540       0.05220613       0.40257083      -1.46291494
I        4.30929852       9.64938068       3.22944260       0.10439174    -608.77665050      -0.04586502       0.26372944      -1.19962030
I        2.55674219       3.20308089       3.12944126       0.09148486    -608.50489571       0.16324395      -0.21779479      -0.58724980
I        9.68569660       9.36418343       2.75754642       0.07511420    -608.32302598      -0.29496731       0.02792424       0.03708850
I        3.60155749       9.28743458       9.78239918       0.07841447    -608.36762444      -0.04732414      -0.01157138      -1.13989665
I        9.25507641       3.32354617       9.98292637       0.09500784    -608.57032707       0.11430414      -0.12744522      -1.24510529
I       -0.57513857       2.04068756      13.05486584       0.16088970    -609.13463976      -0.15260263      -0.11026077      -0.45335884
I        6.76907063       8.68836308      12.49303913       0.06229974    -608.24580368      -0.31692655       0.32225929      -0.44279760
I       10.25139999       6.19217348       0.05154948       0.07907065    -608.39853638       0.21909264       0.32207852      -0.08238667
I        4.22354507      12.24321842       0.01444486       0.08178300    -608.40548439      -0.44770578       0.06199587       0.16004194
I       12.56144714       9.80463600       6.08868408       0.09658550    -608.54457937       0.59297055       0.29547046       0.69097016
I        6.40419579       3.18242764       6.04223919       0.08586090    -608.40522942      -0.28961667       0.86168920       0.28998806
I        3.16202903       6.40201044       5.85615683       0.09865714    -608.63938110      -0.07456155       0.86419723      -0.05717881
I        8.80293274      -0.49030742       6.01281595       0.07780154    -608.36346499      -0.58790315      -0.24524307      -0.08593515
I       13.00415897      10.15915298       0.32044882       0.08858903    -608.49982869      -0.15962569      -0.10251904      -0.05728513
I        5.60389566       3.74169588       0.48462048       0.07439730    -608.38135842      -0.45812145       0.32287225      -0.36019706
I        1.55942941       6.07508898      12.41175747       0.09934492    -608.52864942       1.00034628      -0.04467957      -0.44379424
I        8.08868694       0.17682251      12.76421833       0.06536545    -608.22755062       0.67305249       0.01173391      -0.85006450
I        0.16508067       2.05117249       6.33155346       0.07844011    -608.42276624       0.03004518       0.02863407       0.33082900
I        6.51897240       8.92441845       7.02742577       0.09837364    -608.58058191      -0.13718572      -0.07905800      -0.35208237
I       10.32157135       5.61569500       5.94898558       0.08247396    -608.51004289      -0.04834664       0.20053953      -0.13475363
I        4.27696133      12.75208664       6.24806929       0.06864015    -608.27878068      -0.38314799      -0.77956344      -0.00929873
N        6.29478645       6.47499275       4.32087517       0.01496352    -610.21814309       0.28746301      -1.18749923       0.99833995
N       12.00925541      12.17473888       3.55253434       0.04560586    -610.45383766      -1.29643412      -1.45905954       0.86378962
N        1.27707505       6.71075630       8.99106503       0.00809164    -610.56919893       0.83641698      -1.18790346       1.33855238
N        5.18439007       0.07335465       9.53070068       0.04925233    -610.52967381       0.71456184       2.93390114       0.51163832
N        7.18473721       6.08261061       9.01390743       0.01574494    -610.29027017      -1.25720177       0.24528515      -0.32610902
N        0.66857404      -0.23661101       9.74511242       0.01065578    -610.43384556       0.24893413      -1.21941177      -2.34993951
N       12.64218903       5.52976513       2.71050453       0.05173140    -610.33638892      -1.91810847      -0.03007719      -0.86682469
N        6.60706186      12.34221077       2.66802359       0.00941126    -610.62148252      -1.66220051      -0.25361568      -0.72481796
C        6.17807579       5.82919931       9.77233601      -0.11603931    -609.98501411       0.62050477       0.80304042      -1.11348925
C       11.93571758      12.44992638       9.55466175      -0.17085707    -609.93528733       1.46691868       1.40702967       1.98965325
C        0.53899401       6.96177244       2.98505735      -0.21157478    -609.64531420      -0.16072758      -0.89244127       0.75842859
C        5.89393711       1.31519568       3.24439812      -0.16202652    -609.95130162       0.48754581      -0.04471208       1.15350762
C        6.67962790       5.23912621       3.89721894      -0.11567325    -609.92940580      -7.65868807       4.02349641       3.58784090
C        0.77071714      -0.20835537       3.27285862      -0.16112974    -610.05469679      -0.19266568       0.62959780      -1.09542249
C       12.58454323       5.62635660       8.99369526      -0.16432571    -609.94772831      -0.33827632      -0.13620806      -1.77201802
C        6.81387949      12.55922413       8.69624424      -0.16434856    -610.09514019      -0.57448356      -0.72908434      -0.25651995
H       12.43258572       5.16998577      10.01276588      -0.00245892    -609.22492067      -0.48430378       0.56968542      -0.75769282
H        6.64601278      13.30972290       7.91950035      -0.00298328    -609.35534876      -0.18636788      -0.10973008       0.09943958
H       11.69775009       6.07287407       8.43119717      -0.00233538    -609.22309740       0.40976963      -1.06631737       1.20451220
H        7.61011505      12.86847401       9.33377075      -0.00306162    -609.35504012       0.66254481       0.26042782       0.66015601
H        0.64136565       4.77921820       8.32122612      -0.00285606    -609.23922734      -0.21983564       0.63975685       0.58528819
H        7.05193901      11.59308910       8.23371410      -0.00220580    -609.39486165       0.00587741       0.23717979       0.04717445
H        0.15056501       7.02883863       4.02805853       0.00059398    -609.11240376       0.30995266      -0.37927455      -0.70605185
H        6.71286726       1.34912133       3.98831248      -0.00002009    -609.16894762      -0.83451536       0.65299216       0.27888489
H        0.09333498       7.72770166       2.29673362      -0.00150410    -609.08654727       0.12906684      -1.77497972       0.13477385
H        4.85105848       1.35393310       3.69683075      -0.00284472    -609.22320163       1.10309005      -0.25731620      -0.26441704
H       13.92686749       7.04943132       3.03480077      -0.00482792    -609.42221723       0.27457379       0.46266033       0.11243438
H        5.96083736       2.24353242       2.62603474      -0.00048700    -609.12257718       0.11763369      -0.57985000      -0.08454580
H        3.08152366       9.63658333      14.36710262      -0.00372000    -608.11517861       0.21272768       0.00045899       0.92743690
H        5.35057926      -0.33643392      10.45143223       0.00042130    -609.44520042       0.06247361      -0.28762472       0.26896583
H        1.63787925       6.68393755       9.95956516       0.00116776    -609.17140427       0.52660429       0.20782112      -0.62629915
H        4.70700979       1.02369940       9.72510338       0.00022182    -609.48113010       0.75418274      -0.88261944      -0.18951470
H        0.83827031       7.60379124       8.97621155       0.00075739    -609.16981029      -0.72362981       0.93449820      -0.26875289
H        4.46426821      -0.41252014       9.06460094       0.00055047    -609.44512020      -1.13634199      -1.33098870      -1.00751735
H       13.25563145       5.35052395       1.90266728      -0.00623825    -609.34051452       0.23042181      -0.92519975      -0.25178056
H        7.61951971      10.11322689       4.87520170      -0.00661147    -607.99361170       0.37516036       0.45711312       0.30095840
H       -0.63237458       5.26716471       2.45268726      -0.00459747    -609.58650215       0.31124555       0.53140125      -0.21653182
H        7.56170368      12.06032467       2.60717893       0.00119580    -609.13464157       0.72745562      -0.00065879       0.29430943
H       12.80764294       5.00517559       3.55003285      -0.00472131    -609.35921626       0.70784708      -0.60952897       0.48251817
H        6.13848972      12.15744019       1.78319478       0.00317969    -609.17344586      -0.14924420      -0.20607057       0.03781729
H       -0.69362932       2.04294181      11.37122536      -0.00337336    -608.13953186      -0.02087335      -0.02973972       0.59048029
H        7.12073708       6.66016960       8.18405914       0.00436622    -609.23740255      -0.46113702       0.61556910      -0.18817071
H        7.33758640       6.12877750      13.83210373       0.00986160    -608.98555441       0.12393391       0.04179457       0.13116410
H        1.17942703      11.01797295       9.58006001       0.00160418    -609.14367595      -0.55915518       0.55796574       1.21202791
H        0.96992749      -0.08829457       8.74111462       0.00159526    -609.13243260       0.49224756       0.86188996       0.98740258
H        8.09730244       5.86246252       9.21541309       0.00591222    -609.12992763       2.84046472      -1.41771812       0.73308558
H        5.40745163       6.49290848       9.39659977      -0.00318485    -609.00983308      -1.44692348      -0.68147122       0.85404973
H       11.22673225      -0.17133269       8.61986732      -0.00241009    -609.21522178      -1.33236850      -0.53041990      -1.78934901
H       24.30577469      -3.91619062       4.04669714       0.01550569    -608.60984290      -0.54565699       3.27662578      -1.95099806
H       11.95137310      13.56676865       9.58765793      -0.00151015    -609.31234329      -0.17839978      -0.40200789      -0.46990050
H        6.29355955       5.09086990      10.57559681      -0.00570025    -608.96673861      -0.57946679       0.46957731       0.12156187
H       11.25835800      12.20163536      10.36832047      -0.00354286    -609.20874405      -0.11522811      -0.65877425       0.23339601
H        7.89010715       6.60132790       1.01422763       0.01075267    -608.85903045      -0.35024016      -0.45756365       0.38457405
H        0.97744316      -1.23254132       3.57353044      -0.00261519    -609.34125960       0.65146612      -0.12576355      -0.04698851
H        5.73349047       4.70999241       3.75658822      -0.00182216    -608.96142825       0.48541776      -0.62865101      -0.20420740
H        1.71986628      12.84308243       3.85424614      -0.00375170    -609.35758298      -0.20385841      -0.41068150      -0.08541452
H        7.43034458       4.92758226       3.38892698      -0.00718764    -608.49750538       5.73739228      -1.49328596      -2.84739977
H        0.95240468      -0.07293067       2.16722894      -0.00190110    -609.36158513      -0.08458699      -0.17474656       1.11106606
H       11.46185780      13.08203983       3.51651073       0.00156294    -609.46987754       0.70153620      -0.07373076      -0.11070895
H        6.78487778       7.31514740       4.71048641       0.00281656    -609.11080434       0.47453105      -1.07679330      -0.74147365
H       11.89203930      11.82177067       4.55981255       0.00103225    -609.49344159      -0.13704727       0.47567888      -1.07442739
H       12.18421841       8.79351807       3.29727769       0.01258900    -608.56593890       0.22950389       0.46089401       2.89076097
H        5.36161470       6.42039680       4.82619810       0.00035396    -609.19987384       0.64161977       0.22028507      -0.86257573
H       11.04125309      -0.83701771       2.98399591       0.00082476    -609.52252590       0.67249276       0.80295936       0.54779778
96
Lattice="12.299111366271973 0.0 0.0 0.397482693195343 12.292691230773926 0.0 0.0 0.0 12.580405235290527" Properties=species:S:1:pos:R:3:initial_charges:R:1:energies:R:1:forces:R:3 original_dataset_index=126 energy=-58458.49174370229 pbc="F F F"
Pb       9.80854511       9.79181767      12.32030392      -0.13890158    -606.07175051       0.62699283      -0.67125131      -0.12383753
Pb       2.42985749       2.68698764      12.25480270      -0.11935321    -605.74709708       0.88854055       0.19621965      -0.23078358
Pb       3.82900190       8.54588318      12.62097263      -0.13060816    -605.90181919       0.28749317       0.71472032      -0.30745169
Pb       8.70251751       3.48466063      13.01236439      -0.12198605    -605.77817131      -0.18010765       0.23133854       0.11184966
Pb       9.42132950       8.77369022       6.14391994      -0.13067970    -605.93743473       0.41714794       0.20839348       0.38114179
Pb       2.82251525       3.15973687       5.99790955      -0.13968579    -606.13380629       0.25824103       0.17958193       0.67996470
Pb       9.48714828       2.57399869       6.56734896      -0.11928783    -605.69201310      -0.04634723       0.28599898      -0.81619069
Pb       3.27933502       9.68215656       6.39741325      -0.13956285    -606.09532173       0.47905345      -0.04670819       0.23061622
I       10.39347744       8.38127899       9.26121426       0.07446075    -608.35243086       0.05159495       0.32158702      -0.31206832
I        3.65918732       2.97321248       9.07315540       0.07200796    -608.30864325      -0.26323794       0.17708814       0.90027157
I        9.15450382       2.91907310       3.52065992       0.08102266    -608.51180597       0.09352176      -0.10874598      -0.35585489
I        4.52873230       9.20817566       3.05950761       0.09780272    -608.51228835       0.28775702      -0.16588665       0.27953481
I        2.40131426       3.62004066       3.09588695       0.08737112    -608.56754013      -0.10053382      -0.14585319      -0.53376374
I        9.68393803       9.36162663       2.87556243       0.09079945    -608.56526515       0.21584139       0.03621838       0.21745003
I        3.21929216       9.83701420       9.54298782       0.07706632    -608.38239725      -0.32798710      -0.40436755      -0.44461637
I        9.58484840       3.06031251       9.57666492       0.14752127    -608.97808507       0.39082805      -0.74017235       0.96761800
I       -0.54721004       2.30368996      12.71068954       0.10428745    -608.68412961      -0.10265302      -0.06668314      -0.28225838
I        6.94076252       8.51503754      12.38019276       0.08470537    -608.49746819      -0.73528821       0.07478104      -0.07723991
I        9.91765976       6.23618746      -0.36259058       0.07177101    -608.34895644       0.18052712      -0.33395674       0.53324741
I        3.93454361      11.84086132       0.25834841       0.08445149    -608.40034569       0.07213007       0.64059117      -0.36129101
I       12.66341496      10.12045288       5.98890066       0.09643096    -608.53480854      -0.74222427      -0.31155311       0.17163192
I        6.27287817       4.11928844       6.44666481       0.09370429    -608.54064230       0.40938935      -0.35239456       0.22158313
I        2.75385094       6.79826975       5.88356256       0.08355191    -608.43066869       0.11533350      -0.79939038       0.38760175
I        7.88786554      -0.03504581       6.30742788       0.10197808    -608.63639118       0.95131695      -0.59629487       0.34517712
I       12.85639954      10.35413647      -0.19242541       0.06971924    -608.29563693      -0.31262781      -0.70989279       0.66111935
I        5.53679514       3.61955404       0.04574423       0.07959847    -608.50540181       0.52643224       0.09578068       0.32007064
I        2.35953879       5.99128008      12.79364872       0.07138361    -608.28587420      -0.24631473      -0.56174461      -0.03288972
I        8.49218845       0.32058442      12.73828506       0.10108166    -608.65433103      -0.26244013       0.24168020      -0.23135435
I        0.40962476       1.34772456       6.64473772       0.08768554    -608.45587568      -0.51799216       0.74525927       0.07020453
I        6.55253983       8.49695778       6.98079586       0.08722150    -608.52240903      -0.21653789      -0.08448994      -0.17484302
I       10.60217953       5.91021681       6.01132250       0.09717618    -608.61723044      -0.03351878      -0.09886039      -0.08036830
I        4.59175014      12.67508888       6.41312647       0.09147098    -608.55539559      -0.02715219      -0.14360912      -0.49982914
N        6.20699406       5.71725178       3.57123780       0.04967983    -610.35357806      -1.38002147       0.04724053      -2.67552811
N       12.44707584      12.46773624       3.53938603       0.04882839    -610.44870906      -0.15821506      -1.67029838       2.11333652
N        1.61829567       5.81424379       9.63741398       0.00647548    -610.53284573      -2.41985713       2.48170511       2.99681967
N        5.10297585      -0.01013560       9.64632702       0.04442582    -610.43236403      -1.46144004      -1.40604964      -3.74210123
N        8.10323334       5.97154856       8.78756332       0.04735160    -610.54980520      -1.50347223      -4.06231900       0.72394041
N       -0.35135826       0.06504905       9.89847851       0.00337734    -610.65131813      -1.85967180       2.55269058      -1.56418131
N       12.79005814       6.95575857       3.40148067       0.04871292    -610.41157619       1.28918118      -2.13090192       1.76354997
N        6.79923534      11.59792423       2.59990764       0.05006646    -610.33177290      -0.14355577      -2.28205436       0.00128313
C        6.96606064       5.84486294       9.78400326      -0.16579235    -610.11371750       1.78149000       0.23698963      -1.28536536
C       11.09973526      11.90031052       9.36818695      -0.16273369    -609.70399816      -2.00547759      -0.97726690      -2.94811655
C        1.45947218       7.93627024       2.90169120      -0.17183369    -609.99937003       1.01081079       1.83239556       0.16104845
C        5.47766495       0.40781584       2.93340087      -0.16674030    -610.05890210       1.21745846       0.06794820       3.98267864
C        7.36700726       6.39218664       2.91089678      -0.17082824    -610.11917291      -0.88669539      -0.03614825      -0.81423252
C        1.14271832      -0.18553197       3.12782526      -0.16454209    -610.09316257      -0.22365328      -0.66585325      -2.05731845
C       12.69430161       4.84408474       9.93602276      -0.15779363    -609.78618843       2.51084225       1.36103926      -2.42613072
C        6.48193932      11.21865273       9.78632164      -0.16516238    -610.08408940      -1.33599139      -2.53087866       1.84940839
H       12.09404755       5.12485313      10.80851650      -0.00603270    -609.12441870       0.78184383      -0.31166548       0.25929752
H        6.27861547      10.35750771       9.09760761      -0.00277554    -609.35250859      -0.26513193       0.53260558       0.79496059
H       11.97873306       4.77972841       9.11183167      -0.00190095    -609.15269690      -0.18261201       0.55864125      -0.41398632
H        7.46145010      11.47651863       9.55814075      -0.00273347    -609.20572439       1.79529795       1.33308143      -0.64339899
H        0.94785833       3.89765763       9.80941868      -0.00350008    -609.11743607      -0.52291006      -0.36018017       1.10171215
H        6.51836109      10.89268875      10.89678097      -0.00240712    -609.40516695      -0.28442197       0.18864946      -1.66927714
H        1.29067039       8.16682816       1.79473031      -0.00351900    -609.38748415      -0.16827971      -0.43367241       1.49721067
H        4.40818024       0.24312793       2.71748948      -0.00386952    -609.26332086       0.69869170      -0.44717405       0.26125918
H        2.49489021       7.56789589       3.03765178      -0.00353439    -609.24616651      -0.76880805       0.17403300       0.01679645
H        5.80534029       1.27664602       2.44333053      -0.00291278    -609.25675700       0.38124079       1.41020700      -0.67862807
H       13.62827778       8.87758732       3.48621893      -0.00366494    -609.32651328       0.16658658      -0.45520906      -0.39750617
H        5.77212095       0.47271785       4.08441496       0.00072592    -609.38213283      -1.47093121       0.82337662      -2.09196274
H       10.32990646      11.21756363       6.99196482      -0.00937247    -607.92504470      -0.49059817       0.19815095      -0.33450934
H        4.15437603      -0.22227392      10.01206303      -0.00020508    -609.38253611       0.45354093      -0.35011174       0.47062678
H        2.03240395       5.89246607       8.72101021       0.00203303    -609.10281352      -0.52171245      -0.28415727      -0.54932216
H        5.43599701       0.80033034      10.06153393       0.00071554    -609.36513696       0.56350444       2.44411601       0.87349534
H        1.45656133       6.85858393      10.05659485       0.00079513    -609.18997601       0.28681026      -3.20206634      -1.52685538
H        4.78510809       0.16045107       8.49966431       0.00014413    -609.35139697       1.06002270       0.07243523       2.24396727
H       12.42887974       6.83218861       4.43621063       0.00113567    -609.35353215       0.38405834       1.36415822      -1.43477972
H        7.20101833      11.11779785       3.51381469      -0.00147692    -609.44187120      -0.83555875       0.86539558      -2.31028118
H        0.94935131       6.01113272       3.34415960       0.00018973    -609.45765191      -0.47441868       0.22589640      -0.70061906
H        7.61484528      11.84937763       1.93659329       0.00013231    -609.38167112      -0.99933105      -0.16602351       0.70243976
H       12.08819389       7.08064938       2.73385334       0.00168938    -609.39463603      -2.51565998      -0.67605465      -0.88636487
H        6.12333679      10.90857601       2.11487889      -0.00028069    -609.41045254       1.41686225       0.11670444       0.47829296
H       -1.28621352       2.31523371      10.61229324      -0.00369613    -608.12198767      -0.42337962       0.26785575       0.31072166
H        8.62002754       6.78299856       8.86244965      -0.00083580    -609.35176867       1.54729210       2.95142654       0.06670304
H        8.76520252       5.18743086       8.97060013       0.00182718    -609.47669120       0.02663954       0.56098486       0.18488760
H        0.63973320      11.82731056      10.44467354       0.00281555    -609.03476172       0.67400151      -2.25025059       1.86099904
H        0.31764865       0.53069180       9.30301189       0.00325263    -609.18419082      -0.53532737       0.48918311      -1.07087523
H        7.78520536       5.74053764       7.86094284       0.00034902    -609.44036462      -0.54359314       0.38125328      -1.19149771
H        6.17230749       6.39838791       9.36271954      -0.00294983    -609.34789547      -1.24581133       0.50852783      -0.24457945
H       10.10664082       0.25778827       8.52243900      -0.00130839    -609.07469840       1.71426659      -0.42962699       2.48565657
H        7.38715887       6.33088732      10.63001537      -0.00281348    -609.32802155      -0.18182393       0.09074420       1.25056948
H       10.23180962      11.56373596      10.08752346      -0.00429565    -609.18175366       1.90804068       0.67538144      -0.82060609
H        6.77251959       4.79613829       9.88511753      -0.00361437    -609.36561012      -0.38440156      -0.54455155       0.30225254
H       11.16937447      11.02086258       8.55317020       0.00187595    -608.95417348       0.07556343       0.58775123       1.29493192
H        7.01400805       6.98002720       2.02585483      -0.00338215    -609.41301670       0.38834589      -0.49901920       0.62428276
H        1.78885043      -0.59628725       3.87857246      -0.00397352    -609.28413525      -0.18573667      -0.35296641       0.91000451
H        8.19965267       5.75731039       2.69498134      -0.00323195    -609.29608237       0.21837275      -1.03408579      -0.51609114
H        2.06363916      13.01207829       2.76836514      -0.00298566    -609.36624074      -0.46951834      -0.16243350      -0.08624854
H        7.75188875       7.02545881       3.63813829      -0.00155376    -609.30627033       0.67848074       1.72393366       1.33543625
H        1.02585864      -0.93605393       2.25690055      -0.00268974    -609.42222619       0.32479299       1.08625110       1.24214467
H       11.91320419      12.59332657       2.70585322      -0.00076904    -609.43233221      -0.89596317       0.49767629      -0.82572131
H        6.46196127       5.15357256       4.48244381       0.00008913    -609.31829105      -0.55046337       0.11612785      -1.19674128
H       12.42100525      13.27103901       4.18370819       0.00031576    -609.41769288       0.12672084       0.51982778      -0.24863848
H        5.63870192       5.21051025       2.69208860      -0.00114775    -609.35820596       1.32059127       0.74293525       3.05768790
H        5.62018776       6.53869486       3.87500668       0.00023260    -609.46550348      -0.06940044      -0.93152413      -0.09698445
H       11.51986980      -0.56964833       4.18589211       0.00141837    -609.44167369       1.42531462       0.75783981      -1.38439418
96
Lattice="12.299111366271973 0.0 0.0 0.397482693195343 12.292691230773926 0.0 0.0 0.0 12.580405235290527" Properties=species:S:1:pos:R:3:initial_charges:R:1:energies:R:1:forces:R:3 original_dataset_index=383 energy=-58452.443711028536 pbc="F F F"
Pb       9.70343399       9.34819317      12.41137314      -0.13625349    -606.14176324      -0.09732279      -0.06272877      -0.10729882
Pb       2.73717475       3.08746600      12.31224346      -0.13034692    -605.99951455       0.13255190       0.04991759      -0.08136886
Pb       3.49296904       8.79734516      12.59230137      -0.13866247    -606.12794773      -0.15668024      -0.19381202       0.29641648
Pb       8.63149548       3.54451513      12.77397823      -0.13638686    -605.99122200      -0.33473625      -0.49798804      -0.19397539
Pb      10.16303635       8.86779213       6.14749622      -0.12310152    -605.79868787       0.14779787      -0.13366661       0.49415638
Pb       2.93254995       3.26539183       6.34672499      -0.15228112    -606.29797660      -0.11210765      -0.66104829       0.21719343
Pb       9.26689434       2.68750334       6.53443575      -0.14386870    -606.13580255      -0.19569014       0.40101554       0.05672613
Pb       3.22249866       9.25994110       6.25808954      -0.13109089    -605.99891416       0.01685985       0.39055356       0.01840265
I        9.53610325       8.66508198       9.39263344       0.07344964    -608.41951016      -0.01463163       0.12172610      -0.31079587
I        3.83657503       3.37641406       9.34843636       0.08298159    -608.42782202      -0.22140005      -0.48649722       0.34598769
I        9.39359951       2.76536727       3.29197931       0.08381406    -608.47143400       0.14258839       0.02805700       0.17298621
I        4.28027105       9.18887424       3.08022928       0.07759986    -608.43765440      -0.09571923      -0.05397818       0.11277974
I        2.89871311       2.73726487       3.06549454       0.08570670    -608.47358979      -0.74512038       0.92768501      -0.21446338
I        9.50591183       9.52341747       3.01753759       0.10091321    -608.62138095      -0.03466869      -0.18042543       0.20458153
I        3.74398112       9.04399014       9.44309521       0.10593113    -608.65321261      -0.05139758       0.06466391      -0.38153399
I        8.95198059       3.47150421       9.75506878       0.07415332    -608.39101590      -0.16121467      -0.03587123      -0.37786932
I       -0.56842303       1.99873424      12.77469921       0.13051750    -608.90159656       0.12937153       1.12949124       0.61026797
I        6.54109287       8.98503590      12.08874035       0.07403307    -608.40488755       0.36065634      -0.33837045       0.03618483
I       10.25722885       6.06667948      -0.05536782       0.10160005    -608.59210143       0.09934840       0.56924735      -0.15032969
I        4.67114639      12.51467896      -0.05967804       0.11909916    -608.86799528      -0.36705196      -0.17372554       0.10113303
I       12.77120304      10.08058453       7.31313515       0.07570771    -608.45257268       0.16046920      -0.24792820      -0.25667226
I        6.17787743       3.08835649       6.15894508       0.07317819    -608.30600653      -0.09403871       0.64293147       0.47996140
I        3.39005017       6.17314339       5.80125141       0.09437142    -608.54787599       0.22971636       0.69521891      -0.18156141
I        9.15756798      -0.27866396       6.15675354       0.08543173    -608.43796358      -0.05775544      -0.30888583      -0.10729779
I       12.91170502      10.06879997       0.02201697       0.08474123    -608.51716157      -0.18065106      -0.02365243       0.25051979
I        5.77139711       4.24363232       0.42634070       0.07788877    -608.41072884      -0.66906732       0.25103368      -0.10015837
I        1.89153337       6.06020975      12.02837372       0.05701881    -608.04757143      -0.12158274      -0.18065586       2.92808716
I        8.06184959       0.19964916      12.07577324       0.10754500    -608.78241435       0.16843950      -0.04509765       0.10272880
I       -0.04376715       2.35574389       6.86803341       0.08111407    -608.44038933       0.21292930      -0.55333256      -0.28837545
I        6.74390507       9.37037945       6.55775928       0.14173180    -608.97375707      -0.08668598      -0.25902040      -0.23512815
I        9.69746208       5.78337240       6.05852461       0.08750825    -608.50936042      -0.01195543       0.37623699       0.11177603
I        3.94175196      12.42921448       6.38242674       0.08158050    -608.47001283      -0.00927579      -0.42791012       0.03668337
N        6.61585569       6.26557922       3.97409797       0.01205482    -610.18468405       1.26635302       2.83978192       0.53461711
N       12.13540649      11.82818508       3.62035203       0.04710349    -610.42431521       0.85118686       0.93201428       1.56131040
N        0.97607344       5.20027685       8.04598522      -0.00231704    -610.23260763      -1.53313073       1.31256973       0.14656874
N        5.47103882      -0.46746567       9.29574203       0.04684793    -610.48252977      -1.64751143      -2.14155551      -0.27987241
N        6.38470221       6.70081711       8.92057133       0.01244247    -610.23334475      -0.46670710       1.49163151       1.20925562
N        0.71378380       0.42259565      10.28916359       0.00828777    -610.61872860      -0.26334440       0.43983893       0.10839149
N       12.39000130       5.00472593       2.54923224       0.04891955    -610.39648640       0.83746044       0.04006996       0.89237068
N        6.79128695      12.02400780       3.30371356       0.00658529    -610.50322182       0.29938686      -1.75068558      -0.09569709
C        6.04241323       5.62456608       9.52904797      -0.12321831    -610.13396710      -0.40319186      -0.96784700       0.31592187
C       11.97480774      12.60327148      10.10119534      -0.16771996    -609.98945930      -0.41347925       0.69539603      -1.84332286
C        0.51026344       6.22822189       3.26031041      -0.16460267    -610.11065137      -0.92976578       1.91577634       0.45878338
C        5.82206869       1.10610163       3.42074943      -0.15392426    -609.52486411       4.52360440      -0.35265230      -2.14518259
C        6.22996426       5.12976313       3.62127662      -0.12584339    -610.13056254      -2.48783603      -1.87578674       1.01320831
C        0.99559343      -0.30366153       3.37333775      -0.16447586    -609.98670113      -0.01147802      -0.83948366       1.85955615
C       11.97884655       5.50494814       8.87805653      -0.16903260    -609.64146210       1.65659865      -3.12924376       0.40680347
C        6.98891115      12.47509289       8.63471127      -0.16677502    -610.09076073       1.06562619      -0.50116033      -0.78163719
H       14.05214024       6.07322121       9.69847488       0.00670602    -608.62883320       1.39293045       1.43971296      -0.44986619
H        6.93737459      12.32473469       7.54134130      -0.00449665    -609.37205620      -0.19257253      -0.19398698       0.45156381
H       11.20748425       4.72862387       8.67474556      -0.00234494    -609.17152482       1.15812405      -0.20250741       0.09312992
H        6.90618467      13.53198051       8.78634930      -0.00388179    -609.34622088       0.09115861       0.75253815       0.33123653
H       -0.15187111       5.57315540       9.96755219       0.00160915    -608.83568506       1.67843867      -1.62360517       0.25647869
H        7.96038389      12.07762527       8.98632717      -0.00402478    -609.38476077      -0.51547926       0.19997423       0.05699128
H        0.43980584       6.02152014       4.34382486      -0.00477309    -609.44177086       0.28177016       0.16647866      -0.34573988
H        4.78014183       1.33082175       3.45473790      -0.00693527    -608.91564384      -0.54683957      -0.53825374       0.83593555
H       -0.16448143       7.11480999       3.02480435      -0.00665346    -609.38066661       0.54302308      -1.20457191       0.13688347
H        6.19702482       1.43792760       2.35438204       0.00056373    -609.03742648      -1.03888542       0.13871927       1.31044701
H       13.81848431       6.52529430       2.94590306      -0.00551744    -609.42047513      -0.04397814      -0.30762577       0.14407666
H        6.51712465       1.76636481       4.04632807      -0.00401916    -609.08090903      -1.28306458      -1.10353839      -0.46654802
H        6.54739666      12.45626450      12.24336147      -0.00008719    -608.18509784       0.22579059       0.05394869       0.16543029
H        5.34149551      -0.25836346      10.30193329      -0.00015392    -609.45187333       0.20350044       0.14936832      -0.01170056
H        1.73041499       5.92806864       8.01151848       0.00082491    -609.01849949      -1.16786326      -0.17116116       0.33873043
H        4.56798267      -0.17652240       8.82835960      -0.00017969    -609.51035789       0.55017232      -0.08859092       0.11219168
H        0.67411387       5.09351397       7.06843090      -0.00102317    -609.08394093      -0.21898524       0.20398272       0.18152333
H        5.41223907      -1.56406021       9.23275375       0.00091892    -609.50614332       0.34685964       1.92131092       0.07361167
H       12.22333527       5.23521948       1.54388583       0.00082726    -609.37328073      -0.06878573      -0.56144029       0.23676484
H        7.61369848      10.16223145       5.35568333      -0.00347234    -608.11466893      -0.27647842       0.02119358       0.25815571
H       -0.65780604       4.48926306       3.04988432      -0.00200370    -609.46054052      -0.62122142       0.42286336      -0.60622573
H        7.09759760      11.17829990       3.86034203       0.01121376    -608.90101112       1.08929886       2.40617213       2.19676838
H       13.19895649       4.38101244       2.73861718       0.00108238    -609.37981212       0.36274903      -0.55526820      -0.87696138
H        6.22702551      11.27040672       2.96219921       0.00816133    -608.98202004      -2.42367835       0.53275513      -2.32609972
H       -1.36112046       3.42674947      13.47349548      -0.00757873    -608.11300103       0.85909369      -1.10116364      -0.33566534
H        6.24239540       7.70461607       9.36193466       0.00179501    -609.15730856       0.27640167      -2.23433384      -0.91354147
H       10.09574986       5.93160963      15.49687290       0.00667710    -608.93620962      -0.33898594       0.21200824       0.09753873
H        1.39056242      11.80962372      10.60351658       0.00177394    -609.18289198       0.96194109      -0.68872369       0.07968434
H        1.19430375       0.70357656       9.42573929       0.00114909    -609.20608234      -0.19996123      -0.28440025       0.29102422
H        6.80294943       6.59035492       8.00825405       0.00379026    -609.20205546       0.43185040       0.33377733      -0.42741713
H        5.53188944       5.58941364      10.49415302      -0.00286434    -609.03253687       0.25512007       0.63668727       0.06934644
H       11.26525211      -0.02210409       9.07065392      -0.00161211    -609.31594450       0.10251285       0.09613696       0.80320889
H       14.67370129       6.56279421      -2.66216040       0.01047308    -608.87640233      -1.19279522      -0.94023617      -1.81599865
H       11.51547623      13.55858421      10.27912521      -0.00078184    -609.13671297      -0.31084906       0.90319990      -0.46102634
H        6.15793848       4.60784817       9.11036491      -0.00258564    -609.06327066       0.44791860       0.85439079      -0.28300826
H       11.48485088      12.02440357      10.85179138      -0.00304968    -609.20628155      -0.00061570      -1.08941289       0.54203791
H        9.89981365       6.65052462       3.04682660       0.01054897    -608.92120796       0.04354976      -0.16794469      -0.03496715
H        1.49502420      -1.08699608       3.97847295      -0.00222957    -609.33047517      -0.10552947       0.52124916      -0.11782099
H        5.28095007       4.81007385       3.99749064      -0.00242011    -609.04244600      -0.98897253       0.08518422      -0.09524623
H        1.77774525      13.01541424       3.69608498      -0.00360535    -609.31274049      -0.90476735      -1.29543639      -0.49480446
H        6.65965366       4.35770798       3.04131198      -0.00407436    -608.92764323       1.53250061      -0.18450864      -0.52986632
H        1.20450699      -0.56860507       2.33803868      -0.00240894    -609.31974160      -0.17417852       0.31837322      -0.18142891
H       11.83683205      12.70126247       4.20639277      -0.00229108    -609.45005574       0.02546783      -1.71843137      -1.29480600
H        7.57784033       6.51595163       3.76193190       0.00174698    -609.21744602       0.14589347       0.53974713      -0.00732158
H       11.64376831      10.93104267       4.04313993       0.00030999    -609.40271451       1.52573580       1.68247146      -0.71711290
H       11.25877190       6.15371561       9.27332497       0.00331547    -608.72350827      -1.48663004       3.81504972      -1.78926687
H        6.04164457       6.99575329       4.51257229       0.00156593    -609.17740371       0.58520443      -1.40992058      -0.79189547
H       11.46173573      -0.43197918       2.65617657       0.00005823    -609.42297593      -1.34163526       0.36591967      -0.63924150
