96
Lattice="12.299111366271973 0.0 0.0 0.397482693195343 12.292691230773926 0.0 0.0 0.0 12.580405235290527" Properties=species:S:1:pos:R:3:initial_charges:R:1:energies:R:1:forces:R:3 original_dataset_index=131 energy=-58459.30609914506 pbc="F F F"
Pb       9.82524490       9.83604622      12.32313061      -0.14215803    -607.41874202       0.60052403      -0.99140990      -0.16214938
Pb       2.43818855       2.69569850      12.25700092      -0.12007957    -607.25541339       0.53465153       0.05952686      -0.19393513
Pb       3.81715274       8.55459976      12.61007977      -0.13168232    -607.33176442       0.20872670       0.66574051      -0.26339930
Pb       8.67093277       3.47859192      13.01590347      -0.12868170    -607.27949097       0.11701368       0.27684411       0.04025661
Pb       9.40203190       8.77341175       6.13023138      -0.13134623    -607.37190358       0.64666501      -0.24816193       0.35735675
Pb       2.81321645       3.15379286       5.99346876      -0.13738066    -607.40874692       0.37250142       0.42095035       0.62985760
Pb       9.49250698       2.56456232       6.61268520      -0.11473226    -606.94889711       0.27473382       1.05339920      -1.31577259
Pb       3.27812719       9.71390915       6.42654991      -0.14742450    -607.44271016       0.58338285      -0.28442136       0.14906110
I       10.38946915       8.37764645       9.25278664       0.14548616    -608.45831653      -0.03336673       0.07950883      -0.38476303
I        3.66762853       2.99036860       9.11249447       0.15183970    -608.40799985      -0.36354147       0.30991163       0.74238680
I        9.14048290       2.92346478       3.48566413       0.13804245    -608.53112509       0.13619872      -0.32604781      -0.08416887
I        4.52933502       9.23377228       3.05600548       0.13647206    -608.55141532       0.32171692      -0.23316676       0.23940132
I        2.38593531       3.60224223       3.08508420       0.13706902    -608.53895103      -0.02729740      -0.22340172      -0.44109862
I        9.68054771       9.34273624       2.84980369       0.14242083    -608.64347415       0.15270248       0.10431702       0.28258519
I        3.24458814       9.82108688       9.47772694       0.14170994    -608.54375930      -0.17547421      -0.34698170      -0.16595496
I        9.57128906       3.07753897       9.55733585       0.08372489    -608.21320672       1.00045537      -0.68537695       1.18694221
I       -0.57224220       2.30891085      12.75160313       0.13479128    -608.39293333       0.09576060      -0.04167392      -0.21147302
I        6.93288851       8.50600338      12.39146709       0.13717744    -608.49882748      -0.64288344       0.09314322      -0.01309969
I        9.94992924       6.22855186      -0.35166863       0.15551728    -608.35182030       0.11665410      -0.38986819       0.40141611
I        3.91640234      11.83935642       0.25568226       0.14298765    -608.42713314       0.15999901       0.70243186      -0.41706090
I       12.69542599      10.09473896       5.96590185       0.13714224    -608.50552725      -0.84551508      -0.44810193       0.13770894
I        6.29181051       4.10250854       6.44254589       0.15101722    -608.52743667       0.41587816      -0.48104907       0.34682901
I        2.76285672       6.80379772       5.87538099       0.15069014    -608.54163489       0.08509466      -0.77386059       0.33774513
I        7.92837238      -0.06629852       6.28553486       0.09086871    -608.25356974       0.50068264      -0.15427323       1.37612122
I       12.88203621      10.34626579      -0.14359739       0.15232760    -608.48881157      -0.46838811      -0.52494919       0.30361635
I        5.51595020       3.61187816       0.04545531       0.14756118    -608.47427192       0.53527158       0.04130320       0.37319835
I        2.34889770       5.96644306      12.79578304       0.13736703    -608.36519967      -0.24636875      -0.42932551      -0.11301788
I        8.49991894       0.30174553      12.73262501       0.11955298    -608.50197542      -0.43017213       0.37758919      -0.07177121
I        0.40666506       1.38726151       6.62868309       0.12824073    -608.55088964      -0.65645043       0.67716363       0.25206687
I        6.58853436       8.49541950       6.99947405       0.14251801    -608.51620164      -0.27598673      -0.03455595      -0.16225185
I       10.60311890       5.88535404       6.00986528       0.14810054    -608.67236329      -0.16546631      -0.15889199       0.06447135
I        4.53859949      12.65927696       6.40191650       0.12738208    -608.32324755       0.07425516      -0.02705598      -0.64598497
N        6.21955442       5.76151228       3.59527683      -0.13159919    -609.78698168      -1.88706815      -2.90239053      -1.90515599
N       12.48774624      12.37514400       3.61804318      -0.13563719    -609.72103045       0.20120935      -2.04417899       0.03660173
N        1.53275084       5.86817265       9.59680271      -0.06041532    -609.76582467       0.15282223       2.72412315      -0.30084795
N        5.09940577       0.08936651       9.60910702      -0.13715543    -609.77184913      -0.66317573      -2.47967562      -1.03901491
N        8.04089642       5.94069433       8.87892437      -0.13843860    -609.72896822      -0.92434820      -1.52412403       1.78322674
N       -0.22647615       0.02268569       9.81411934      -0.07781543    -609.59974307      -2.92851273       1.34485460      -2.04856466
N       12.78193569       6.94178343       3.24284506      -0.14286968    -609.69608620       0.39426133      -0.60883022       3.12249029
N        6.79435158      11.61831570       2.66576719      -0.13272181    -609.78171778       2.56574222      -1.54149029       1.05412085
C        6.88727283       5.85974264       9.86231422      -0.11702811    -609.95812899       1.49592329       0.08935493       0.13314652
C       11.08976841      11.80558205       9.35296535      -0.13267046    -609.92463050       1.47587066       3.92029835       2.66128406
C        1.46244645       7.99060202       2.88384128      -0.12694821    -610.04864045       0.05854579      -0.61263942      -1.95305903
C        5.51966095       0.49955654       2.97361469      -0.10878474    -610.04509551      -0.89508576      -0.44410609       2.63721648
C        7.47814035       6.22642899       2.94929886      -0.11514874    -610.08823852      -1.61495838       0.40196598      -2.01058309
C        1.16672432      -0.26360416       3.07338309      -0.12166601    -610.04302994      -2.49035001       0.94363054      -2.43151128
C       12.76574039       4.92324114       9.79521084      -0.11666615    -610.00301008      -0.97145786      -0.85584145       0.56398703
C        6.59815598      11.34485340       9.81645870      -0.11346569    -610.01516175      -3.22798156      -1.52443206       1.21476467
H       12.39805603       4.80489731      10.87113857       0.05400832    -609.10018385      -0.00885621       1.03974055      -1.13795281
H        6.41574907      10.44985962       9.17563915       0.04058354    -609.20490628       0.24328880       0.90998917      -0.05444572
H       11.95327282       5.16373301       9.01967716       0.07154074    -608.97309606       0.26586325      -0.90469453       1.18134170
H        7.48912430      11.82840347       9.68757153       0.04697200    -609.16361976       2.53301894       0.92598651      -0.37377439
H        0.87854850       3.85907674       9.70113945       0.05924373    -609.07193383      -0.31478515       0.98242583      -0.78272665
H        6.50005484      10.90280056      10.86339951       0.03854243    -609.19238812       0.18192202       0.92941337      -0.96005237
H        1.21100545       8.14118481       1.79317546       0.03101370    -609.16758638       0.76851232       0.53989452       1.00483848
H        4.48271227       0.15577738       2.80136919       0.04896509    -609.16744285       0.37931508       0.54474728      -0.16432769
H        2.45145869       7.49256849       3.02231121       0.02842446    -609.14573996      -0.74561303       0.52266475      -0.24785717
H        5.80581903       1.37785280       2.44588757       0.05039812    -609.17925933       0.13516362       0.50514309      -1.05321580
H       13.75239849       8.89363289       3.49001217       0.03688473    -609.16256689      -0.61492007      -0.08673587       0.04911174
H        5.54064178       0.84442639       4.11666727       0.06368598    -609.11789283       0.38193703      -1.13581063      -2.06928725
H        9.21869850      12.32051277       7.86017179       0.21200752    -608.68344664      -0.49723998      -0.37953732      -1.16701604
H        4.30301666      -0.18886031      10.23651600       0.00759393    -609.45581297       0.10380000       0.14455032      -0.69269399
H        1.70083213       5.82029629       8.58062267       0.05036357    -609.30473287       0.49243876       0.39454734       0.33439765
H        5.27968550       1.02544165       9.84384918       0.01647627    -609.40733023       1.02341052       1.91856727       0.95825544
H        1.29209781       6.95349979       9.77533722       0.07890920    -609.13069573       0.21358076      -3.12299611      -0.28815007
H        4.77945900       0.23127243       8.55581188       0.00698038    -609.42727653       0.22635234      -0.78174284       1.52401582
H       12.62903595       6.99910688       4.35114861       0.02119664    -609.30265095       0.66671067      -1.08618166      -2.14547184
H        7.23389959      11.24862289       3.60582662       0.02419610    -609.32577734      -0.61282322       0.73673239      -2.13643974
H        0.87560630       6.04853153       2.84070516       0.00813773    -609.38155166      -0.18305647       0.26780711       1.05358200
H        7.66428423      11.84261608       1.97154319       0.02561266    -609.38148238      -1.72402742      -0.21034431       1.27133720
H       11.84349442       6.95388603       2.90417051       0.01873838    -609.35976403      -1.17739889       0.92344302      -0.90974180
H        6.33419371      10.67595959       2.30513000       0.02913873    -609.35384907       0.05634624       1.82021775       0.38556019
H       -1.01326466       2.38264942      10.17499733       0.21696125    -608.44272936      -1.03154405       0.32772720       0.34247059
H        8.53142548       6.80492115       8.90227509       0.00690974    -609.46888778       0.47443195       2.15432574      -0.01248155
H        8.80945015       5.31548929       9.23838997       0.00190668    -609.38719753      -0.75173477       0.10709372      -0.57121247
H        0.68110657      11.58677769      10.19036007       0.05349600    -609.22849100       2.07644670      -1.67626380       0.81608876
H        0.12676583       0.56838530       9.04281139       0.04086194    -609.23632829       1.14714946      -0.47903190      -0.11529703
H        7.74793291       5.73009872       7.93536425       0.00674659    -609.41718115      -0.13159159      -0.45720070      -0.87351006
H        5.98650885       6.38123274       9.65149975       0.04734766    -609.18088602      -0.53625191       0.67619982      -1.00284316
H       10.43714523       0.58634996       9.00986862       0.06652264    -608.86418066      -1.00184098      -2.16709651      -0.54560696
H        7.27931070       6.23093033      10.78019142       0.03498859    -609.21901543       0.36374102       0.71567008       0.79052006
H       10.67213345      11.76964569      10.38109016       0.04616592    -609.08445084      -0.91439511      -0.47134697      -0.64437443
H        6.66065025       4.86126947      10.12200165       0.03914320    -609.19312625      -0.27809037      -1.52396272      -0.41373814
H       10.94748592      10.87393188       8.82109261       0.06312233    -608.96624427       0.23040744       0.11632478      -0.65909262
H        7.25039291       6.88162899       2.02025485       0.05186214    -609.18845814       0.14937937      -1.27966312       1.12045550
H        1.75477493      -0.70785558       3.80001926       0.02863833    -609.23561546       1.18120430      -0.72521367       1.43224548
H        8.09551811       5.37012339       2.71805453       0.03041515    -609.24290623       0.24209482      -0.05569896      -0.02155660
H        1.88706911      12.98698330       2.70363975       0.03595496    -609.19938524       0.93068488       0.37285451       0.00939331
H        7.94838333       6.89054775       3.60107160       0.04465873    -609.19045599       1.04175268       0.91054458       1.37221448
H        1.00185406      -0.88270730       2.15500426       0.04347520    -609.17831995       0.19867834       0.07265475       0.81623737
H       11.93695927      12.78746223       2.89176035       0.00468385    -609.48789289      -0.76420142       0.12231378      -1.16683271
H        6.35894489       5.20089912       4.55409861       0.01059183    -609.40172486      -0.13044858       1.16595266      -1.06650192
H       12.58444309      13.14914131       4.29473019       0.00509761    -609.41489928      -0.16161581      -0.54827239       0.80334082
H        5.69729662       4.89546967       2.92603374       0.06451790    -609.18592524       1.48568649       3.01564746       1.82872308
H        5.54302883       6.56953335       3.66327167       0.01211393    -609.41198932       0.34616930      -0.80178560       0.23455106
H       11.62479496      -0.85278428       3.98536301       0.01759045    -609.34056592       0.69755205       2.08462617      -0.14570024
96
Lattice="12.299111366271973 0.0 0.0 0.397482693195343 12.292691230773926 0.0 0.0 0.0 12.580405235290527" Properties=species:S:1:pos:R:3:initial_charges:R:1:energies:R:1:forces:R:3 original_dataset_index=6 energy=-58471.702950385086 pbc="F F F"
Pb       9.56144905       9.19034767      12.55600262      -0.14282559    -607.55647386      -0.02971954       0.13892649       0.02438169
Pb       3.14867425       3.02238917      12.52250195      -0.14574331    -607.58273779       0.04720933       0.11443891       0.17313476
Pb       3.42843986       9.16742039      12.59149933      -0.13801207    -607.49968476      -0.09747757      -0.00335135      -0.02107631
Pb       9.31008148       3.10903597      12.60432816      -0.14703460    -607.55996800      -0.04551303      -0.10202719       0.00457204
Pb       9.55211067       9.19624138       6.29261827      -0.14120369    -607.53710904      -0.03905319      -0.01632643      -0.02515545
Pb       3.16682458       3.07182074       6.28850651      -0.14232109    -607.56461388       0.02395509      -0.07983797      -0.07987462
Pb       9.33240795       3.02145624       6.28896999      -0.13597965    -607.48444568       0.05280281       0.06597128       0.00321657
Pb       3.39942646       9.21718884       6.26132202      -0.13678700    -607.49579977      -0.05379425       0.11376035       0.12924650
I        9.82913113       8.64955425       9.42041683       0.13446862    -608.63325371      -0.05044854       0.06426855       0.00204445
I        3.42867661       2.53140473       9.47248650       0.13397728    -608.63317620      -0.00795749       0.00072085      -0.21361204
I        9.81280994       2.81993151       3.10912538       0.13204584    -608.65667797       0.18754985      -0.07600409       0.29935460
I        3.94701743       8.94160271       3.17967558       0.13230951    -608.62755721      -0.03014395       0.05196672      -0.08240653
I        2.89125276       3.63887739       3.10881495       0.13849513    -608.63001431       0.10642969      -0.15320454       0.14809609
I        9.32941341       9.76387882       3.15573072       0.13303907    -608.60943523      -0.11556677      -0.09951485      -0.00565871
I        2.81403756       9.48771763       9.49439621       0.13478847    -608.62516395       0.04749678       0.01540628      -0.17836186
I        8.84255695       3.28771162       9.51648712       0.12917186    -608.62574330      -0.04371555       0.04050823      -0.38440430
I        0.08108591       2.21457005      12.37160873       0.13838673    -608.64570507       0.00745787       0.00189398      -0.06286185
I        6.47121429       8.36283970      12.33442020       0.13987161    -608.62007842      -0.08548119       0.00977036       0.02398692
I       10.23657799       6.13213778       0.19691308       0.13770568    -608.60606292       0.10618198       0.01065132       0.06578496
I        4.31572914      12.28084183       0.23006465       0.13808686    -608.63483349       0.10970385      -0.18469745       0.07988480
I       12.55103016      10.06476307       6.03688383       0.13771199    -608.62403636       0.13566728      -0.01417644       0.11346953
I        6.23393059       3.95009708       6.03838348       0.13880442    -608.62642150       0.16431131      -0.07436194       0.12258071
I        2.43089485       6.14909315       6.49781990       0.13621712    -608.64405443      -0.03051561       0.16795124      -0.03339748
I        8.32557583       0.06447044       6.52761173       0.13865675    -608.61358927       0.00828498      -0.16153509      -0.07437350
I       12.56599712      10.10454750       0.18839850       0.14126170    -608.62433304       0.11684410      -0.00960630      -0.05506132
I        6.25694132       3.94347095       0.24562813       0.14222401    -608.63524116      -0.09977004      -0.05794947       0.10648279
I        2.40573549       6.14510632      12.37948990       0.14123882    -608.61213068      -0.01356402       0.15782938      -0.08870886
I        8.35730362       0.06268311      12.34588051       0.14285286    -608.64459362       0.00697943      -0.11363726      -0.06571657
I        0.14570615       2.11492252       6.55966711       0.13865060    -608.64555372      -0.20682584       0.06674135      -0.07468136
I        6.42170191       8.33914661       6.53622818       0.13566560    -608.62036422       0.03674671      -0.11349353       0.05582429
I       10.32859898       6.08782434       6.06580067       0.13749248    -608.65030940       0.07023284       0.08252167      -0.11326173
I        4.39765120      12.31241131       6.07486820       0.14268555    -608.61320859      -0.02245510      -0.22190621      -0.04048294
N        5.87127352       5.91875410       3.23028159      -0.13468908    -609.80224636       2.35770381      -0.96723742      -1.39413934
N       12.20029926      11.96556091       3.12752151      -0.13177709    -609.85699907      -0.41139126       1.78437781      -0.46345335
N        0.43314254       6.60060835       9.37927628      -0.12824599    -609.79458129       0.16953124      -2.28731388       3.00660888
N        6.35844374       0.42016205       9.39772415      -0.12780289    -609.81388038       0.13094708      -2.33287453       3.80935653
N        6.95519114       6.28191662       9.45194626      -0.13140285    -609.83982466      -0.89549410      -2.07316886      -4.49199571
N        0.32231897       0.11584415       9.45295429      -0.12613781    -609.77592103      -1.27417353      -2.71655691      -2.44044853
N       12.41759682       5.76489210       3.06098485      -0.13489379    -609.83310321      -0.69092787       0.11048244       1.85252491
N        6.44417048      11.80497074       3.12999964      -0.13495816    -609.81688201      -0.47012673      -1.30485461      -1.63770750
C        5.45214367       5.97474003       9.52282333      -0.11162297    -609.99033051       0.29642364       1.85627507       1.46498078
C       11.44749832      12.21648121       9.39561653      -0.11546651    -609.98091404       2.77651780       2.38034363      -3.77098492
C        0.45027480       7.22531509       3.03033447      -0.11335122    -610.02259457      -1.10158934       0.23148037      -0.33261244
C        6.42992067       0.95289314       3.04594159      -0.11585286    -610.01024086       1.66391995      -0.60738625       3.05860767
C        7.39518261       6.08156633       3.02691483      -0.11271974    -609.96166893      -0.29015582      -1.67562126       2.70963889
C        0.96674883       0.10913901       3.06998420      -0.10835428    -610.04336296      -0.25627856       0.91991490      -1.29794820
C       12.30793190       5.07937193       9.35898304      -0.10980428    -610.00105333       0.09233414       0.84567247       0.03617697
C        6.49540901      11.16853619       9.53501797      -0.10893540    -609.98263234       0.11405182       0.55226113      -2.34477565
H       11.46560287       4.83541059      10.05572510       0.04752596    -609.19800140       0.85487689       0.54577574      -0.34338793
H        5.83701897      10.94031620      10.35197163       0.03853368    -609.24875114      -0.30429588       0.22590319       0.47369876
H       11.96679020       4.95226955       8.31642532       0.04499397    -609.19536985       0.04101620      -0.08527917       0.34745003
H        6.04816151      10.79495716       8.53087997       0.05075418    -609.20089855       0.54560558       0.78448324       1.55260444
H        0.91210002       4.45375586       9.51757908       0.04706474    -609.20680973      -0.44274082       0.44391583       0.14747436
H        7.45756674      10.67162800       9.65087700       0.04397457    -609.21531050       0.12235921       0.07844304       0.12179752
H        0.97625446       7.54310608       2.13809991       0.03041964    -609.24636038      -0.12127213      -0.19336894      -0.34732865
H        6.88302469       1.14019549       2.11621499       0.03728490    -609.22240200       0.86631380       0.19484685      -1.13553205
H        1.09368992       7.31796789       3.87537169       0.03867611    -609.20671870       0.67527775       0.47948584       0.68639338
H        7.07166290       1.28618598       3.93404317       0.04070934    -609.21301448      -0.77463506      -0.60895532      -1.19920297
H       11.83154774       7.84031868       3.21109533       0.04033137    -609.22416768       0.57493669      -0.57305769      -0.25941516
H        5.52208662       1.44473565       3.09166336       0.04584052    -609.17987411      -1.90400776       1.43068519       0.08512822
H       11.96072483       7.17394638       9.18439865       0.01456457    -609.47196175      -2.12434692       1.24250999      -0.36733993
H        5.51351690       0.92827755       9.66686344       0.01216021    -609.43698977      -0.29426721       0.44369197       0.03718779
H        0.88424265       7.01719618      10.26859570       0.02656794    -609.36154987      -0.32910041      -1.20017719      -1.15085800
H        7.19332981       0.72850758       9.99963856       0.01912080    -609.40354231      -1.13393164      -0.42496561      -0.44776347
H        1.01981413       6.66819239       8.59481907       0.00876841    -609.50452933       1.84557906       0.46918605      -1.56967671
H        6.58804464       0.58448303       8.47848034       0.01314642    -609.47355846       0.72812039       0.74969797      -3.18856210
H       12.17598438       5.66996431       4.09918833       0.01139849    -609.44819998       0.00313446      -0.57143978      -1.06395329
H        5.50912237      11.64149189       3.63314962       0.01712339    -609.41200283       1.48542101       0.18426522      -0.16236995
H        0.94659853       5.16554308       2.88916945       0.00795635    -609.46987268       0.13352720      -0.08658854      -0.10692390
H        7.21164894      11.05536175       3.39150167       0.02826552    -609.32812919      -1.13988679       1.43932792      -0.34790452
H       11.59656143       5.38792181       2.54489803       0.01706721    -609.41366941       0.27635534       0.56668494      -0.25013262
H        6.20221090      11.67235947       2.08673978       0.01320689    -609.42011103       0.10273844      -0.68779034       1.33327949
H        0.58078277       0.58178329      10.26153183       0.01280550    -609.51096308       0.65103339       1.29759599       2.60539028
H        7.21227741       6.95051241      10.09369564       0.01612768    -609.49019935       0.77201483       2.09907261       2.45939467
H        7.71670628       5.48614979       9.42800999       0.03407313    -609.35211794      -1.63680934       0.88003521       0.05565438
H        1.32651114      11.49481392       9.36178780       0.02372883    -609.39908824      -1.08084797       1.31487943       0.11407460
H        0.50914818       0.75192815       8.67074585       0.00821094    -609.51714075       0.47717070       0.05694737      -0.45830120
H        6.93316031       6.81407785       8.48612690       0.01935162    -609.43893173       0.85131459      -0.79301330       1.32296041
H        5.00307512       7.04732180       9.52751827       0.05798765    -609.14204314       0.34093357      -1.78674020       0.00588411
H       10.69555092       1.00033021       9.32672310       0.04843234    -609.14317259      -0.00851113      -1.34665686       0.08375954
H        5.19577217       5.45086908      10.46694183       0.04025582    -609.21027830       0.21520475       0.23645826      -0.55777673
H       11.19345474      11.75379467      10.25286484       0.04721180    -609.16196735      -1.20198566      -1.69836105       2.83811233
H        5.14944887       5.44229698       8.63975906       0.04124361    -609.21182586      -0.04166967      -0.34094826      -0.41715551
H       11.28070354      11.64297485       8.43509769       0.04077290    -609.19418690      -0.12975180       0.57201687       1.14431461
H        7.65258455       6.72669935       2.25079823       0.03950755    -609.21913409       0.08328267       1.16814617      -1.40837407
H        0.96106672       0.91502762       2.24153233       0.05007406    -609.20154322       0.33502087      -1.25688766       1.10240198
H        7.75743246       5.03299093       2.81814957       0.04581603    -609.18980494      -0.23356205       1.04761631       0.11269259
H        2.12692595      11.61666298       2.83373308       0.05041382    -609.19274668      -0.98052461       0.30161827       0.31848248
H        7.85549068       6.39970922       4.00592327       0.04373020    -609.20783100      -0.49081859      -0.08841790      -0.89943272
H        1.15674365       0.62567961       4.01732445       0.04260755    -609.22279295       0.18071049      -0.22263103      -0.02700820
H       11.89655685      11.57685757       4.04555750       0.01433023    -609.44724582       0.42646169      -0.33117533      -0.34616130
H        5.74256468       5.50031662       4.13334274       0.00714343    -609.48811459      -0.44735336      -0.03689320       1.50384498
H       11.86560822      11.36588764       2.31280446       0.01927759    -609.41631663       0.60064886       0.40488360       0.76453026
H        5.69364214       5.13229084       2.61115313       0.00962780    -609.47292881      -0.69825181      -0.38619298      -0.77172679
H        5.22194815       6.65269375       2.99278212       0.01825926    -609.39705993      -0.25853210       1.13044459       0.09622093
H       11.29944706       0.63005251       3.05707693       0.01722005    -609.42020614       0.12089994      -1.40656952      -0.00323912
96
Lattice="12.299111366271973 0.0 0.0 0.397482693195343 12.292691230773926 0.0 0.0 0.0 12.580405235290527" Properties=species:S:1:pos:R:3:initial_charges:R:1:energies:R:1:forces:R:3 original_dataset_index=7 energy=-58470.36634235387 pbc="F F F"
Pb       9.56650543       9.18676090      12.55218887      -0.14279139    -607.54731328      -0.04257613       0.16721063       0.02817788
Pb       3.14239573       3.01499891      12.51280975      -0.14615147    -607.57925405       0.06667342       0.10257049       0.21829602
Pb       3.43780780       9.15996170      12.59355068      -0.13716005    -607.48208910      -0.09591143       0.02608452      -0.03582154
Pb       9.30728245       3.11704159      12.60865211      -0.14780407    -607.55278950      -0.04896823      -0.14167639      -0.00894493
Pb       9.55657196       9.19449615       6.29340792      -0.14054252    -607.51957202      -0.02279364      -0.01966943      -0.02278403
Pb       3.16481161       3.07391095       6.28856707      -0.14224097    -607.56403483       0.01457967      -0.06642562      -0.10950634
Pb       9.33161449       3.01388407       6.28886700      -0.13514274    -607.47067800       0.06689124       0.09997876      -0.00431702
Pb       3.40174675       9.21833229       6.25640774      -0.13553391    -607.47130176      -0.10145484       0.11664399       0.15659060
I        9.83726120       8.64780903       9.41798878       0.13435967    -608.62383116      -0.07252117       0.08843950       0.00961096
I        3.42760181       2.53461576       9.47908878       0.13348702    -608.62845544      -0.00092011      -0.00149461      -0.24544391
I        9.80232048       2.82342935       3.10263610       0.13096984    -608.65248860       0.22015662      -0.10978184       0.37249970
I        3.95135975       8.94082832       3.18539929       0.13144010    -608.61683705      -0.00751954       0.02850139      -0.10445577
I        2.88461614       3.64408875       3.10305333       0.13985993    -608.61706946       0.12821478      -0.19505226       0.15935206
I        9.33850384       9.76532745       3.15808797       0.13253406    -608.59566515      -0.15719531      -0.09420912       0.02116705
I        2.81026649       9.49105644       9.50426197       0.13396627    -608.61131345       0.02561468       0.08113683      -0.16661285
I        8.85244179       3.28166509       9.53013706       0.12766731    -608.62865130      -0.07527212       0.03645104      -0.42715271
I        0.07611472       2.21633220      12.37696552       0.13853015    -608.64517344       0.01957605       0.01353990      -0.07880330
I        6.47356415       8.36496830      12.33331108       0.13890889    -608.62372961      -0.09554729       0.01271747       0.03381737
I       10.22625351       6.13644361       0.18942972       0.13669431    -608.60731227       0.14421226       0.01221024       0.05728749
I        4.31070137      12.28543377       0.22844192       0.13805619    -608.62711246       0.10108552      -0.22500509       0.07401083
I       12.54170895      10.06418610       6.03578854       0.13898574    -608.61919205       0.16383043      -0.03257592       0.12715075
I        6.23012161       3.95506406       6.03757095       0.13860664    -608.62088602       0.20002684      -0.08978644       0.13590435
I        2.43455958       6.14641190       6.49444485       0.13607880    -608.62973865      -0.04762943       0.20327538      -0.03620003
I        8.31934834       0.07242142       6.52942753       0.13747992    -608.61572273      -0.01949752      -0.18975912      -0.07840533
I       12.56011105      10.10684204       0.17878239       0.14163941    -608.62735030       0.15891398      -0.01482317      -0.04795697
I        6.25783443       3.94317031       0.24622124       0.14294788    -608.62879750      -0.12561976      -0.09338600       0.09041570
I        2.40539622       6.14102983      12.38812923       0.13869499    -608.61374903      -0.08466260       0.19654231      -0.15476753
I        8.35706902       0.06971958      12.34859180       0.14393985    -608.64566114       0.01706704      -0.15330379      -0.03529428
I        0.15113279       2.10435271       6.56360531       0.13913156    -608.64671359      -0.23439210       0.08224176      -0.10621295
I        6.41454220       8.34218502       6.53612518       0.13348554    -608.60493283       0.08323791      -0.15927500       0.08692835
I       10.33208084       6.08505869       6.06852627       0.13622561    -608.64943340       0.09434124       0.08605736      -0.12477325
I        4.40459347      12.32323265       6.07924271       0.14204326    -608.60900659      -0.00273088      -0.26857128      -0.07627506
N        5.86442423       5.89651966       3.23313165      -0.13311778    -609.79933965       1.98144446       0.74695223      -0.68158687
N       12.19301414      11.94772243       3.12077308      -0.13218144    -609.85092625      -1.00340512       2.10154308      -0.24592621
N        0.43594331       6.60673094       9.36788177      -0.13344677    -609.71776598       1.17589669      -4.05514860       5.53836462
N        6.34988689       0.40073231       9.39726639      -0.12840804    -609.81780050       1.01564406      -0.77201375       1.19675249
N        6.97589636       6.27956820       9.44042110      -0.12767915    -609.88328272       0.24099624      -0.50012271      -3.08132855
N        0.29433590       0.11711065       9.44212532      -0.12682767    -609.83897912      -0.98055048      -3.41271113      -0.09898976
N       12.43835926       5.77896452       3.05619311      -0.13394767    -609.83001870      -1.03487661      -0.41754339       1.82607157
N        6.45332909      11.78880882       3.11074138      -0.13232997    -609.81205266      -0.02689482      -0.92535147      -0.52997238
C        5.48782444       5.97019339       9.54686832      -0.10553925    -610.02114203      -0.89284948       2.49712780       1.06416959
C       11.44052124      12.23592758       9.39000416      -0.11001939    -609.99292419       0.21446677       1.34593069      -2.29058712
C        0.46729010       7.23919630       3.01259947      -0.11167356    -610.04016686      -1.30489541       0.13524535      -0.12706045
C        6.44059563       0.94531989       3.04090428      -0.11675294    -610.02434441       2.22488090      -0.63316125       2.24413980
C        7.40111685       6.04590607       3.01717162      -0.11090931    -609.99718206      -0.63045016      -1.25028685       1.96083576
C        0.95175719       0.10613435       3.05477715      -0.10546947    -610.05309489      -0.14688853       1.18561821      -1.31038703
C       12.30914307       5.08390903       9.33737087      -0.11287455    -609.98152849      -0.18438141       0.50857292       0.62980329
C        6.52108812      11.15360069       9.54870701      -0.10489310    -610.01296182      -0.45065032       0.91311942      -2.91608931
H       11.45209694       4.84279442      10.05197239       0.05273588    -609.17272631       1.03039407       0.68053564      -0.94634460
H        5.84962797      10.97803211      10.38346767       0.04233124    -609.22374251      -0.15583955       0.02705209      -0.00851925
H       12.02883911       4.99908304       8.27016354       0.04573352    -609.18247541      -0.09610626      -0.51484236       0.53992188
H        6.07108784      10.80439091       8.46901321       0.06430993    -609.13758204       0.96557046       0.64736301       2.70120962
H        0.89120954       4.43700361       9.59123421       0.05076847    -609.20074845      -0.55848433       0.73980305      -0.26693105
H        7.50335979      10.71454525       9.72341442       0.04801337    -609.18770682      -0.03789119      -0.14534226      -0.09620080
H        0.95499527       7.54530048       2.08785129       0.02890687    -609.25169643      -0.09614669      -0.17685014      -0.01593114
H        6.94723988       1.10114145       2.12270927       0.03651458    -609.24386748       0.42688439       0.30918444      -0.92415210
H        1.08841491       7.35354424       3.87537336       0.03871360    -609.20969713       0.82839504       0.41055427       0.41493781
H        7.09428644       1.33252895       3.88999319       0.04653874    -609.21287708      -0.68185950      -1.00580669      -0.79223660
H       11.84797287       7.84259796       3.22184110       0.04269049    -609.21355361       0.47718219      -0.52078461      -0.40825149
H        5.55697680       1.46205735       3.11794233       0.04644022    -609.18942956      -2.17547579       1.51178451      -0.18883055
H       12.00343895       7.13577080       9.11637402       0.02484280    -609.40738539      -4.22700918       2.77285600      -0.59914308
H        5.54167557       0.94824553       9.72085476       0.01312628    -609.46561683      -0.23001468       0.10344631      -0.14039849
H        0.84214091       6.94387102      10.34904861       0.03372612    -609.26423276      -0.29984961      -0.80974701      -2.30295191
H        7.20752764       0.75395501       9.92399597       0.01924195    -609.43680009      -0.96445371      -0.62687942       0.01520686
H        0.96266103       6.63215065       8.57069111       0.01794040    -609.39344673       3.33959403       0.61280856      -2.41196556
H        6.59810972       0.64555615       8.44065094       0.01290739    -609.47676125      -0.24885898      -0.05668268      -0.77074258
H       12.19692707       5.63458300       4.11002350       0.01510164    -609.43006543       0.38908004      -0.31762813      -1.59496210
H        5.49407673      11.69347668       3.62173581       0.02010143    -609.37214317       1.87233179      -0.19670278      -0.47818241
H        0.93651140       5.17197800       2.78506160       0.00884506    -609.45949422       0.24892650       0.05308934       0.30402281
H        7.26942444      11.06823921       3.46824050       0.03863238    -609.26540453      -1.86803366       1.60606679      -0.87426974
H       11.61131668       5.38841724       2.55197024       0.01738985    -609.41803556       0.19275873       0.81841406      -0.17751466
H        6.26043558      11.63167000       2.05927587       0.01547098    -609.39012532       0.06245601      -0.62778568       1.56788905
H        0.64045489       0.48363096      10.30288506       0.01825030    -609.44918352      -0.17409813       1.20647887       1.32997963
H        7.27778530       6.98430777      10.10231304       0.01679599    -609.46776141      -0.01749845       0.36107559       0.78276812
H        7.73443556       5.43817806       9.47084045       0.04374490    -609.32058822      -1.89202193       1.44456406      -0.25543861
H        1.30725729      11.44891930       9.44643974       0.04078755    -609.28089875      -1.40107749       1.68787553      -0.86611905
H        0.45959854       0.76838309       8.67921638       0.01116408    -609.47484145       0.88853974       0.18463614      -0.67694930
H        6.98610401       6.86283541       8.42749882       0.04183808    -609.33947471       0.52572913      -1.50407492       2.14129409
H        4.99477816       7.11104202       9.53085804       0.08156499    -609.08471383       0.89231380      -2.98590101       0.07711564
H       10.60890293       1.03251386       9.29843807       0.05792171    -609.16518267       0.77368989      -2.01555024       0.15842322
H        5.17679548       5.43195915      10.49559021       0.05376030    -609.18943510       0.71914172       0.71091031      -0.93231569
H       11.01731396      11.74164486      10.22593307       0.05123297    -609.18135858       0.05041354      -0.40298775       1.24064207
H        5.13993597       5.40709925       8.67532730       0.05208386    -609.19911909       0.26943497       0.10690081      -0.03576304
H       11.13430595      11.60618782       8.46084023       0.05163562    -609.21008686       0.89699711       1.21563148       1.30371151
H        7.60333347       6.75253677       2.25343943       0.04014422    -609.22322997       0.08000074       0.56227697      -0.94346936
H        0.91007370       0.95564681       2.21450138       0.06133466    -609.16319346       0.55943747      -1.78364623       1.71404826
H        7.64506912       4.98273563       2.73217678       0.04621043    -609.17600140       0.54568127       1.22928082       0.28333197
H        2.12316751      11.59522533       2.79305363       0.05758715    -609.17009210      -1.41223190       0.83038334       0.39959332
H        7.89532614       6.38208961       3.99416471       0.04923121    -609.19684779      -0.70728242      -0.58809851      -1.19680234
H        1.13554168       0.56962097       4.04595089       0.04745653    -609.20478057       0.25675761      -0.19679553      -0.54364292
H       11.88748264      11.59697533       4.05693960       0.01651978    -609.43691070       0.57925995      -0.64289520      -0.51509132
H        5.77253151       5.52287865       4.16933632       0.00799338    -609.48414172      -0.57059452       0.30730075       1.24673016
H       11.89786816      11.32484341       2.30483079       0.02006135    -609.41944005       0.35862741       0.48849791       0.90235741
H        5.64464617       5.08327150       2.68228102       0.01195746    -609.45636209      -0.81133135      -0.41726416      -1.14425328
H        5.29365349       6.73209763       2.97574878       0.01559455    -609.40835863       0.10473687      -0.32609632       0.45910297
H       11.21038532       0.60198402       3.08350158       0.02739462    -609.37255222       0.82512896      -1.73298427      -0.36060375
96
Lattice="12.299111366271973 0.0 0.0 0.397482693195343 12.292691230773926 0.0 0.0 0.0 12.580405235290527" Properties=species:S:1:pos:R:3:initial_charges:R:1:energies:R:1:forces:R:3 original_dataset_index=265 energy=-58451.49623067643 pbc="F F F"
Pb       9.99108410       9.59509468      12.02648354      -0.13610850    -607.42505641      -0.23662935       0.29381360       1.38716768
Pb       2.43263412       2.93481278      12.24511051      -0.11564745    -607.12992408       0.64975485       0.35647136      -0.11028991
Pb       3.58070636       8.71361065      12.54777431      -0.13033652    -607.31141255      -0.07088985      -0.09509829       0.32883834
Pb       8.60620308       3.67876482      12.63551044      -0.12758967    -607.02106998      -0.12326178      -0.08932675       1.26093949
Pb       9.73841286       8.67433262       6.29067802      -0.12520412    -606.97516334       0.95011441       0.16965197      -0.90305784
Pb       2.90824246       3.50487208       6.21259499      -0.14889006    -607.47922940      -0.12429383      -0.89645062       0.03810933
Pb       9.32600307       2.75786686       6.70507956      -0.14319146    -607.35899055       0.34135998      -0.17290454       0.20073108
Pb       3.42933297       9.36132526       5.97937346      -0.12660179    -606.87279616      -0.98416648       0.98692607       1.30677089
I        9.94391251       8.61260033       9.23024940       0.11292537    -608.57366973       0.00454789      -0.33641472      -0.21361776
I        3.67501616       3.32925630       9.20547199       0.12764603    -608.61289610      -0.15143047       0.10304932       0.75475314
I        9.49530697       2.41323161       3.83740020       0.13301334    -608.36643078      -0.23381494       0.80755377      -1.23817714
I        4.25437117       9.67994595       3.27465463       0.06162220    -607.56481113       5.09994412      -1.60413443       1.11283022
I        2.64436984       3.16463375       3.11475420       0.13595769    -608.40573653       0.76563627      -0.64177669      -0.40298488
I        9.64679623       9.41194630       2.74148989       0.16036560    -608.46723028       0.04008994      -0.10513243       0.30588475
I        3.61654520       9.23113632       9.72512436       0.13335571    -608.60338841       0.04056780       0.04226345      -0.89178400
I        9.23228264       3.31582046       9.93918228       0.13691077    -608.45475011       0.07288062      -0.06690589      -0.97174624
I       -0.59223777       1.99126160      13.06816769       0.09117258    -608.33603365       0.25640830       0.17132642       0.23271557
I        6.76211023       8.75719929      12.44095802       0.15358570    -608.37279290      -0.08732501      -0.13765136       0.01921280
I       10.23076057       6.28525734       0.10022776       0.14080906    -608.46546395      -0.36357525      -0.03525340      -0.08689703
I        4.26500225      12.28699970       0.02853573       0.11801180    -608.49980217      -0.49433664      -0.09370668       0.84428525
I       12.63297176       9.84857750       6.22694206       0.13540493    -608.58603732       0.24279621      -0.17437465      -0.00566311
I        6.29105616       3.06547642       5.95991468       0.11822306    -608.22942063      -0.56639089       0.74957962       0.87927094
I        3.21528029       6.47432995       5.85709715       0.12703833    -608.44476278      -0.04542445      -0.09435161      -0.09717489
I        8.87773705      -0.48195118       5.99245501       0.14640261    -608.37822699      -0.31548008      -0.11867863       0.35408198
I       12.97963715      10.15390491       0.31640992       0.13867983    -608.40638887      -0.29521971      -0.14363155      -0.51620422
I        5.56378460       3.78960967       0.49450091       0.14111461    -608.50255899      -0.28408837       0.31273975      -0.27183235
I        1.58103859       6.13657522      12.32740784       0.13056120    -608.44902639       0.86908656      -0.19904820      -0.38500976
I        8.09441566       0.11473310      12.67415905       0.15101653    -608.48549651       0.73613490       0.34017592      -0.78647403
I        0.19903763       2.06202269       6.33112907       0.14119707    -608.51257399      -0.16107076       0.11850867       0.34147029
I        6.48827934       9.03937340       6.96970510       0.08604769    -608.25530661      -1.60179325      -1.21645263       1.88674161
I       10.26580906       5.63932943       5.98164797       0.13524327    -608.62916357      -0.23089274       0.14369003      -0.22865480
I        4.25545597      12.70340347       6.28412342       0.15655968    -608.37314777      -0.29646349      -0.64757377       0.05873766
N        6.32081556       6.41119146       4.18883181      -0.08857086    -609.62337481       3.03981393      -4.22703566       0.88552561
N       11.91421795      12.18536377       3.57103300      -0.13951328    -609.79121651      -0.62493895       1.02411717      -0.22538531
N        1.27735817       6.60344791       9.01993656      -0.05989401    -609.68482681       2.75899914      -1.30491567       0.08117553
N        5.16159630       0.18879621       9.46224308      -0.14165980    -609.84040154      -0.56789883      -0.37907500       1.56625431
N        7.11100626       6.29490328       9.35459137      -0.07693074    -609.51819920       0.60023038       0.77645225       0.44671849
N        0.65129322      -0.17081992       9.58889484      -0.05693029    -609.87426157      -0.83000539       2.15372629      -0.69280424
N       12.63977909       5.11749744       2.56840968      -0.13401912    -609.74906867       0.05888219       2.34097280       0.01627612
N        6.53619909      12.21397305       2.62523508      -0.09056288    -609.63417687      -1.64451460       1.52771990      -1.35070884
C        6.25642633       5.92331266      10.28356361      -0.04474776    -609.80231756       2.15691442       0.89453089      -1.48876964
C       11.90976906      12.39700127       9.50384903      -0.11266318    -609.96077010       0.93578349      -0.10791608       0.87477705
C        0.42647827       6.63543224       3.00359702      -0.11430457    -609.97245829       2.05688748      -2.49061157       1.93276917
C        6.03341961       1.14908361       3.32135653      -0.12659509    -609.95394495       1.96192144       1.04565848      -1.82452804
C        6.28275394       5.02752256       4.02391195      -0.04304868    -609.66333988       1.71137784       1.71652171      -0.37194423
C        0.63532501      -0.08281191       3.27955389      -0.12781887    -610.07386760       0.36064779       0.06564616       1.68524253
C       12.54950523       5.66002131       8.89802742      -0.11544754    -609.99641414      -0.04948982      -1.43227250      -0.63880364
C        6.87478638      12.54251766       8.81041908      -0.10911848    -610.08950996       1.53828729      -0.00729392       0.36339928
H       12.01880264       5.42768669       9.82293606       0.06603239    -609.00236715      -0.70913359       0.05648571       0.24730781
H        6.94491434      13.38803291       8.09841347       0.03535448    -609.22330316      -0.23640852      -0.52430293       0.23649869
H       12.01148415       6.16364717       8.13284206       0.06144380    -608.90621403      -1.84261506      -0.23031874      -0.42630883
H        7.67037725      12.65942192       9.61441994       0.04277528    -609.21748189      -0.85547107      -0.00758771      -0.77371144
H        0.51044935       4.65971899       8.44351196       0.06329777    -609.08804936       0.30869628       0.70800893       0.30229175
H        7.05423260      11.57726955       8.31986141       0.03657743    -609.20772629       0.01567794       0.36659710      -0.11919266
H       -0.14552493       6.74304867       3.91857004       0.04402096    -609.22030096      -0.15028303       0.16819587       0.08548807
H        6.95468235       1.26766098       3.86585164       0.06122565    -608.97340925       0.29823893       0.23021247       0.97081066
H        0.15937990       7.30425024       2.24038863       0.04802477    -609.19678234      -0.77753408       0.61384898      -1.32528011
H        5.17899895       1.27500963       3.89983034       0.04827534    -608.99619670      -1.50932755       0.20613165       1.30560929
H       13.81837368       6.77669001       3.21671247       0.04904776    -609.18599518      -0.82246867      -0.00803208       0.01113209
H        6.08478260       2.00084782       2.56145406       0.05227711    -609.06039591      -0.26019815      -1.03706566       0.80938858
H        4.59056282      11.70791721      14.73078728       0.25492930    -608.33572744       0.81892177       0.15582597      -0.67481205
H        5.27925968       0.01433978      10.50786114       0.01133265    -609.36583246      -0.24213709      -0.30610057      -1.12676996
H        2.02172518       6.33380175       9.67783260       0.05023837    -609.22676342      -0.53283937       0.90230040      -0.30385201
H        4.63766479       1.07849598       9.45104790       0.00756498    -609.45744189       0.10790416       0.52837000      -0.34045500
H        0.90467018       7.51395082       9.05055141       0.04514525    -609.29455923       0.14009038       1.35701390       0.55021154
H        4.48161364      -0.49169835       9.04853249       0.01227324    -609.40647078       0.64163443       0.11777662       0.25270911
H       13.09270668       5.23955488       1.60234869      -0.00538821    -609.52861771      -0.02909546      -0.87876998       0.72357455
H        7.48468304       9.67577267       5.97972584       0.20070517    -608.87585460       1.30851965       1.38705122      -1.64656788
H       -0.62808084       4.94426394       2.37569523       0.00692780    -609.47311796      -1.01422758      -0.48040271      -0.01368591
H        6.40860891      11.31932640       2.96300554       0.05155779    -609.22402464       0.16678227      -2.03576296       1.28420538
H       13.10591507       4.33995724       3.19088936       0.00822877    -609.35517418      -0.51845137       1.55177802      -0.88009439
H        6.52082968      12.33567429       1.64232588       0.02674979    -609.28848242       0.32975788      -0.50073594      -0.90152890
H       -1.83601272       1.53193653      12.06955528       0.18056898    -608.87488953      -0.21347254      -0.34836096      -0.16245111
H        6.84998846       6.02489614       8.34931469       0.07943231    -609.09451081       0.97229462       0.56808588       1.57094856
H        8.46255016       6.15315104      15.15149593       0.06712805    -609.05023291      -0.24718516      -0.24862811       0.17340437
H        1.25539637      11.27611160      10.02958298       0.04752486    -609.36851322       0.99157601      -1.23918337       0.51100557
H        1.35118139       0.42200759       9.11322212       0.05271545    -609.30896264      -0.82489996      -0.87989444       0.41138183
H        8.02394485       6.91123295       9.60397148       0.09241432    -609.02136791      -1.80458404      -1.26410966      -0.92801121
H        5.51590490       5.35551739       9.74565887       0.07987100    -609.14066057      -1.23646040      -0.52026967       1.12662175
H       11.01199341      -0.72124076       8.91256714       0.06881075    -609.00084261      -0.15437032       0.84014782       0.77378946
H       26.98728561      -2.11567211       2.50543070      -0.00278479    -608.94519263      -5.12480987       1.56515067      -1.01172773
H       11.77630234      13.36503220       9.03617859       0.05157519    -609.02429168      -0.16421596       0.15323223      -0.58609785
H        6.48187780       6.20078564      11.34530163       0.06769774    -609.19186446      -0.64446812      -0.37647139      -0.82074538
H       11.50308514      12.61918640      10.56751251       0.06703422    -609.00412246       0.00550325      -0.94708800      -1.31620843
H        7.87917805       5.79311848       2.92587328       0.05371754    -608.88400157       1.15941711       0.30269276      -0.84009837
H        1.06921148      -0.99890828       3.70766044       0.03394792    -609.04006123      -0.10095933       0.46333243      -0.17955204
H        5.43051434       4.73556948       3.39397550       0.07984657    -609.14682645       0.07907941      -0.62314115       0.62621215
H        1.44776642      13.08551979       3.79934812       0.02832481    -609.20021210       0.08517870      -0.18101305      -0.20456521
H        7.25472975       4.33891392       4.08554077       0.08782052    -608.83593788      -1.91046913       1.98701471      -0.67167094
H        0.73668194      -0.01389495       2.21732807       0.01994356    -609.12406823       0.46861636      -0.19676303      -0.68852955
H       11.52577209      13.12576485       3.35677743      -0.00614698    -609.47455193      -0.46203143      -0.17920052      -0.27508133
H        7.25579786       6.86743116       4.31888628       0.06071971    -609.02267465      -1.40936937      -0.35605673      -0.01611945
H       11.65582943      12.10069561       4.54135418       0.00799498    -609.46931298       0.26535211      -0.25644627       1.25588993
H       14.31016827      10.49794388       2.64829135       0.14794312    -608.45580282       0.75992727      -0.80632299      -1.24305972
H        5.53544521       6.91542387       3.92886925       0.06433254    -609.10608883      -1.78366906       1.52315373      -0.39937267
H       10.93810272      -0.82326812       3.13620019       0.00342863    -609.49127098      -0.20768596      -0.64348795      -0.81509893
96
Lattice="12.299111366271973 0.0 0.0 0.397482693195343 12.292691230773926 0.0 0.0 0.0 12.580405235290527" Properties=species:S:1:pos:R:3:initial_charges:R:1:energies:R:1:forces:R:3 original_dataset_index=394 energy=-58454.47821131967 pbc="F F F"
Pb       9.67288208       9.34108353      12.42607498      -0.13289504    -607.40936798       0.02373114      -0.21800624      -0.13346213
Pb       2.74774909       3.04490352      12.33192730      -0.12465174    -607.29704177       0.26363959       0.26765833      -0.07189029
Pb       3.51038241       8.85013103      12.61833572      -0.13586693    -607.42174507      -0.28915381      -0.32132614       0.19484688
Pb       8.57596207       3.47971964      12.77083874      -0.14593026    -607.41572560       0.56305182      -0.39396390      -0.07223493
Pb      10.20013332       8.87717152       6.12777615      -0.11709707    -607.17570995       0.08460182       0.00304479       0.56477933
Pb       2.93914247       3.23989511       6.33557844      -0.14863092    -607.53889779      -0.34843601      -0.31201077       0.14986158
Pb       9.23422146       2.68933868       6.51298141      -0.15251498    -607.49438796       0.16980669       0.35776908       0.18200352
Pb       3.21395946       9.23501015       6.24806309      -0.12489099    -607.23978184       0.08297865       0.33580277       0.15963471
I        9.45430660       8.69882584       9.44365501       0.14261992    -608.43475383       0.16032822      -0.03903345      -0.51824996
I        3.85608459       3.34599066       9.32783794       0.13199767    -608.47668896      -0.08206219      -0.48817559       0.61822946
I        9.38352108       2.79080319       3.28772712       0.13430840    -608.61868710       0.27892130      -0.07938807       0.07899204
I        4.21568012       9.13066006       3.05813503       0.14764310    -608.48788515      -0.06778521      -0.02795926       0.13280423
I        2.83356762       2.76060319       3.09374499       0.13480170    -608.61931009      -0.69696260       0.62892303      -0.31379665
I        9.52939320       9.49413967       3.02703190       0.12255865    -608.60257415       0.08019561      -0.08321034       0.23436296
I        3.80647469       9.08030319       9.45340633       0.13420160    -608.44989530      -0.22289686       0.09981823      -0.51903683
I        8.90585518       3.49896073       9.75932884       0.14450583    -608.53704974      -0.13989444      -0.06610972      -0.40233575
I       -0.42525476       2.00531673      12.75217819       0.09657469    -608.32713288       0.81267818      -1.61893848      -1.43161618
I        6.53335428       8.91884518      12.02920628       0.14216784    -608.36156857       0.51344432      -0.31913239       0.10952441
I       10.34431553       6.05635118      -0.10894353       0.13967547    -608.44616655      -0.19854259       0.37617447      -0.11690378
I        4.69212198      12.49081421      -0.01961915       0.10493965    -608.38983937      -0.85426265      -0.16948323       0.07824725
I       12.80666351      10.14172649       7.35362196       0.13475469    -608.50297794      -0.04118592      -0.27941136      -0.30639864
I        6.21909142       3.15485287       6.23504591       0.13715158    -608.47996984      -0.26936382       0.46533346      -0.03408181
I        3.38851762       6.18050051       5.81320763       0.13108882    -608.38000740       0.17829555       0.55892662      -0.58894803
I        9.17699242      -0.26190412       6.13839245       0.12299120    -608.42768077      -0.01861792      -0.47735590      -0.07090059
I       12.94809055      10.08256054       0.04049840       0.14497216    -608.58989927      -0.31277582      -0.09658143       0.07658968
I        5.82359791       4.31578922       0.40648267       0.12977289    -608.60776318      -0.93472071       0.31960319       0.22989792
I        1.86567199       6.03701305      12.10477066       0.13514113    -608.52508486       0.35896490       0.07892796       0.22994345
I        7.96487379       0.21274775      12.06182671       0.12935118    -608.41189960       0.46091130       0.19379064       0.26695948
I       -0.04858068       2.34475875       6.88493586       0.13930035    -608.43859788       0.11581882      -0.86749506      -0.39874954
I        6.78207827       9.33826351       6.49648714       0.08878586    -608.35026149       0.21525187       0.48365333      -1.13947689
I        9.64327526       5.79691172       6.04432344       0.12887289    -608.40861568       0.01401641       0.39439025      -0.07576303
I        3.90066481      12.46049881       6.37335205       0.14687866    -608.48429005       0.10170962      -0.58778899       0.07505220
N        6.70817137       6.33850527       3.94063163      -0.09176283    -609.70473204       1.75397504       2.94790417       0.15843940
N       12.21577454      12.03743744       3.65394783      -0.13970238    -609.78170825      -0.58557184      -2.26618531       2.85891477
N        0.62402946       5.17422056       7.79212999      -0.09990189    -609.51334202      -0.16434419      -0.16816635       0.52403438
N        5.45765734      -0.57105041       9.29816246      -0.13692997    -609.84329745      -1.64272937      -0.82931880      -0.60452135
N        6.30466652       6.64416409       8.82360744      -0.08011705    -609.63432893       0.56174758      -0.45735698      -1.04988000
N        0.67774594       0.48998585      10.45239639      -0.06709814    -609.86025503      -1.08523088      -0.50273781       0.51789090
N       12.36388969       5.11170435       2.59974170      -0.15880568    -609.89785359      -0.06413827       0.55701851       0.52378437
N        6.76737690      11.88791943       3.38751292      -0.06902122    -609.74225244       1.39074977       2.46284517       2.53191273
C        6.27801800       5.50380993       9.42358112      -0.05018068    -609.88390054      -0.09449430      -0.19951268       0.48126392
C       11.94017506      12.64422226      10.06620598      -0.12035478    -609.91614908       0.84612277       0.22019719      -1.52642265
C        0.52927399       6.39570713       3.20431399      -0.10637172    -610.07046277      -0.28341921       1.03225550      -0.20277897
C        5.88137531       1.19314992       3.17810678      -0.11945532    -609.83407851       0.52575662      -1.01896918      -1.52822410
C        6.30744362       5.18233347       3.68285489      -0.05861744    -609.90303954      -1.35367067      -2.82944258      -0.72961698
C        0.93060440      -0.61652172       3.39635921      -0.11428499    -610.09488998       1.67911485       1.58296303       0.92245245
C       12.14032555       5.16230965       8.92764091      -0.05106294    -609.60064440      -1.29364818       0.73316698      -1.95006842
C        6.92573214      12.53592491       8.66121292      -0.10839480    -610.10092579       0.70964555      -1.07394886       0.02389655
H       15.14718628       6.29791212       8.47499657       0.03813162    -608.94181942      -1.47128896       0.99468436      -1.19866378
H        6.99592209      12.34180737       7.57578754       0.02889710    -609.25479384      -0.38659849      -0.09630151       0.44517643
H       11.09017754       5.09208393       8.88053036       0.08419280    -608.95881485      -1.32940409      -1.70834751      -0.26705713
H        6.72342443      13.57530022       8.81542492       0.03553512    -609.23234421      -0.13433044       0.70476541       0.23999124
H        0.03086305       5.60978079       9.83829880       0.08004975    -609.14277154       1.48913482       1.09481210       1.72386462
H        7.88503647      12.23290348       9.12242889       0.04215115    -609.21623254      -0.36689493       0.28022969      -0.15907892
H        0.16773558       6.46748114       4.23952436       0.03690787    -609.21247789       0.16701292       0.07358609      -0.20889546
H        4.79230118       1.25437307       3.36161017       0.09199572    -609.03165866       0.67792007      -0.61869515       0.40242985
H        0.13685809       7.25201941       2.56006861       0.04491884    -609.20761514       0.26377348      -0.95946629       0.86564180
H        5.92664337       1.48122811       2.03445530       0.08422995    -609.06172706       0.51272646      -0.82079604       2.04661636
H       13.92001724       6.41119242       3.14773560       0.03857668    -609.21393848      -0.00284585       0.02218721       0.15056467
H        6.38201284       2.02343512       3.75961375       0.09202090    -608.93943003      -0.14803254      -1.26428110      -0.39094789
H        6.45209789      12.81909657      12.47728348       0.12566005    -608.98594546       0.44747810      -0.28390301      -0.07423997
H        5.27728271      -0.39619312      10.32420254       0.00845171    -609.47199587       0.31716565       0.11897945      -0.64688880
H        0.91733122       6.09499502       7.61909103       0.05305591    -608.93386991       1.67324887       1.52627404      -0.20077622
H        4.49558353      -0.42830765       8.80520916       0.01154356    -609.38612746       1.43010574       0.06811313       0.49727956
H        0.10211089       4.93846273       6.95996714       0.04692307    -609.10213045      -0.45654231      -0.56228397      -0.06189831
H        5.58369017      -1.62328422       9.21684742       0.00705323    -609.38405628       0.09323144       1.09886724       0.12203324
H       12.36206818       5.39155102       1.59442210      -0.00421337    -609.35795863      -0.23064775      -1.07471793      -0.13484417
H        7.32224655      10.19650269       5.05152321       0.18457395    -608.77102564      -0.38757949      -0.72875212       0.95769572
H       -0.87222886       4.83045101       2.94344425      -0.00512205    -609.35223740      -0.02987628       0.20026175      -0.40816992
H        7.80218172      11.88747025       3.77081299       0.08135392    -609.05752828      -1.18982136       0.73468282      -2.02164144
H       12.98510647       4.31518936       2.85161591       0.00432912    -609.36339887       0.43689824       0.16085377      -0.40809751
H        6.53592205      11.70069599       4.41791487       0.07250643    -609.08402865      -1.25370074       0.37999316      -1.21800130
H       -0.57458603       3.13347864      13.78644371       0.18749991    -608.87545135      -0.42976240       1.59309526       1.63946058
H        6.18353415       7.53363276       9.34377670       0.05942129    -609.10145886       0.07890424      -0.30460655      -0.28786615
H        9.83172703       5.80536366      15.50710869       0.06078186    -609.05346870      -0.28073065       0.31218178       0.10175067
H        1.47591126      11.82521152      10.49569511       0.04238825    -609.35981381       0.15421834       0.98406590      -0.31310763
H        1.12094772       1.13553882       9.79827309       0.04387547    -609.38618602       0.30104682      -0.49464859      -0.16141782
H        6.52618742       6.63979578       7.79121542       0.06102728    -609.08885315      -0.35757527       0.26893209       1.26111080
H        6.12496471       5.43107986      10.49993801       0.06824242    -609.21294200      -0.05158587       0.37281236       0.08636079
H       11.48274231       0.23046055       8.95549488       0.06448314    -609.04468261      -0.37714730      -0.01165958       0.64903422
H       15.61067677       6.01720762      -3.67059088       0.04197472    -608.92198977       1.34767675      -0.85739357       1.66398737
H       11.34893227      13.50179863      10.34563637       0.05702551    -609.04665584      -0.11589137       0.74099492      -0.11133645
H        6.41786957       4.55633640       8.92371655       0.06179455    -609.17003422       0.08385291       0.11138361      -0.53883151
H       11.43664074      11.83078671      10.54767418       0.05279831    -609.11044840       0.08912856      -0.91012867       0.35271225
H        9.81952572       6.56599283       2.89000201       0.07351457    -609.00912577      -0.01038520      -0.22494117       0.04165565
H        1.31339383      -1.39257979       4.07948732       0.03335187    -609.24719369      -0.44187080       0.29916931      -0.07673665
H        5.26861620       4.94803333       3.62215447       0.06569571    -609.10292973      -1.02542935      -0.00324846       0.63292752
H        1.92979002      12.63366508       3.55313396       0.04302955    -609.21065513      -0.48390519      -1.22117552      -0.08046837
H        6.91289377       4.31780672       3.39038301       0.06681314    -609.12591094       0.62417265       0.73266643      -0.12812206
H        1.10192764      -0.94912493       2.38631654       0.03856162    -609.21925571      -0.31826001      -0.11656834      -0.51952566
H       12.02945042      12.99635601       3.38689852       0.00695058    -609.37804610      -0.70070026       0.28559536      -0.65179050
H        7.67051125       6.56667757       3.65144849       0.06110171    -609.11562530      -0.07660793       0.10471388       0.80008054
H       11.97588348      12.02472973       4.76681137       0.03293193    -609.30047169       0.53187069       0.02603432      -2.41339034
H       10.82116699       6.63947630       8.53228664       0.23759869    -608.22882409       0.35148124       0.12951322       0.51273832
H        6.16329050       7.14016199       4.34943724       0.07230608    -609.04379213       0.00983008      -0.97156142      -0.80836363
H       11.19941616      -1.04286540       3.26302791       0.01551722    -609.34962997       0.07498677       1.50487094       0.15808502
96
Lattice="12.299111366271973 0.0 0.0 0.397482693195343 12.292691230773926 0.0 0.0 0.0 12.580405235290527" Properties=species:S:1:pos:R:3:initial_charges:R:1:energies:R:1:forces:R:3 original_dataset_index=12 energy=-58469.596918128795 pbc="F F F"
Pb       9.59250927       9.16885281      12.53275490      -0.14334837    -607.52923882      -0.05338891       0.39573022       0.16427054
Pb       3.11012173       2.97713709      12.46348572      -0.15076971    -607.59101034       0.07964233       0.10120125       0.39856246
Pb       3.48580456       9.12166119      12.60389042      -0.13602032    -607.46158902      -0.20240288       0.18222692      -0.08580864
Pb       9.29262161       3.15793514      12.63094997      -0.15227182    -607.53141315      -0.07718766      -0.30405077      -0.01452839
Pb       9.57937050       9.18533897       6.29729176      -0.14129609    -607.52121580      -0.22870821      -0.12867748      -0.17305815
Pb       3.15448380       3.08445501       6.28860807      -0.14402381    -607.58782572       0.05722028      -0.04659507      -0.13693989
Pb       9.32767010       2.97523141       6.28829432      -0.13343747    -607.45611767       0.05349348       0.29156784      -0.05292792
Pb       3.41350985       9.22460651       6.23164797      -0.13461950    -607.44626469      -0.04671558       0.11530857       0.30251794
I        9.87901878       8.63902473       9.40538311       0.13205379    -608.62060322      -0.05555198       0.08498902       0.07443389
I        3.42213821       2.55115843       9.51169300       0.13244358    -608.62330478       0.05178232      -0.02815315      -0.54307624
I        9.74914265       2.84102869       3.07118392       0.13598305    -608.60234695       0.26670083      -0.15225663       0.65182387
I        3.97395468       8.93703651       3.21456265       0.12966646    -608.64315884       0.08392062       0.02163624      -0.17229128
I        2.85104084       3.67004514       3.07415199       0.13996576    -608.59354837       0.25334041      -0.24602517       0.27056346
I        9.38496113       9.77223778       3.17020249       0.13775621    -608.59190830      -0.10682877      -0.19123904      -0.03426026
I        2.79098535       9.50850105       9.55439281       0.13856044    -608.62442272       0.02426663      -0.01517174      -0.31430814
I        8.90298748       3.25058532       9.59841728       0.12926340    -608.64499742      -0.22617510       0.16804108      -0.71466580
I        0.05073878       2.22532773      12.40419292       0.14038932    -608.63845390       0.03093865      -0.00256210      -0.21044873
I        6.48547935       8.37583542      12.32763863       0.13721947    -608.63674949      -0.05987014      -0.02756094       0.07046312
I       10.17370605       6.15871191       0.15111068       0.12927400    -608.63182358       0.32349419       0.00497688       0.16430126
I        4.28515482      12.30792713       0.22031803       0.14352502    -608.58224542       0.09334540      -0.38296597       0.06863460
I       12.49439526      10.06113243       6.03070354       0.13408786    -608.61215527       0.36061476       0.01490144       0.13530417
I        6.21140289       3.98027968       6.03417444       0.14473622    -608.59102717       0.32999937      -0.18703714       0.31083468
I        2.45305800       6.13375473       6.47714043       0.13768820    -608.61478847      -0.02886426       0.39450326      -0.00517068
I        8.28706455       0.11244244       6.53842592       0.13700317    -608.61502845      -0.02986951      -0.41941316      -0.15404345
I       12.53049088      10.11864376       0.12887478       0.14235127    -608.61097097       0.26176696      -0.06358628      -0.02454311
I        6.26176834       3.94115448       0.24933444       0.14478140    -608.61050220      -0.26548149      -0.20274813      -0.08876845
I        2.40329957       6.12066126      12.43210506       0.13392304    -608.64702444      -0.14441573       0.22149320      -0.29294351
I        8.35587692       0.10525351      12.36261463       0.14530036    -608.63740421       0.02899499      -0.21703989      -0.09533176
I        0.17813852       2.05002975       6.58358288       0.14193159    -608.63124431      -0.25931444       0.09241541      -0.14945433
I        6.37809896       8.35736179       6.53582525       0.13696943    -608.61652602       0.16726315      -0.10324311       0.00851769
I       10.35021305       6.07131815       6.08211279       0.14380792    -608.59576411      -0.04515163       0.16703479      -0.13748006
I        4.44059086      12.37789536       6.10132933       0.14162736    -608.61217108       0.04983298      -0.45629714      -0.12000935
N        5.88253498       5.80137062       3.27252030      -0.14106056    -609.73129562       0.99184520       2.24742493      -0.54647266
N       12.15027332      11.89401913       3.09545732      -0.13631052    -609.89284672      -1.49976126      -0.87093097      -0.61495742
N        0.42185125       6.55677509       9.30034351      -0.14550991    -609.72776906       4.17718471      -4.33932796       5.43903885
N        6.33211756       0.32451567       9.38282681      -0.13900664    -609.78214038       1.66683369       0.73473700       1.65246697
N        7.06849766       6.29042721       9.38369656      -0.13313973    -609.85375798       1.54323026      -2.26806619      -1.70569222
N        0.12096623       0.08068951       9.43748856      -0.13746455    -609.79939436      -0.38391783      -3.88116963      -2.63743427
N       12.53013706       5.83492088       3.03356528      -0.13496587    -609.79443653      -0.85382539      -0.30392304       0.44700180
N        6.51701069      11.74230576       3.01813698      -0.13389573    -609.72285858      -0.10768104      -1.06897009       3.09197133
C        5.65229702       5.98859167       9.65266228      -0.10862257    -610.01273606      -2.54333937       2.25341616      -0.22056539
C       11.35136223      12.31543159       9.37299252      -0.11968565    -609.96863917      -0.83104696       2.19313630      -5.06707547
C        0.53354430       7.30332184       2.94977760      -0.11268497    -610.04502539      -1.98548995       0.01827482      -0.07237946
C        6.50431585       0.92615724       3.00679994      -0.11368493    -610.00693249       3.50097206      -2.59277501       1.70523368
C        7.36153364       5.86372328       2.94994640      -0.11197669    -609.95490816       0.40496298      -2.05711661       1.27779196
C        0.83506006       0.10862716       2.99148464      -0.10697377    -610.04902157       1.25685091       0.66000543      -1.46770768
C       12.33006859       5.15354872       9.23889542      -0.11443193    -609.98142459      -1.41190280      -1.44696442       0.52461052
C        6.65760136      11.15514565       9.59930134      -0.10766871    -610.01388463      -1.80812627      -0.69198917      -2.74863278
H       11.33593845       5.06884336       9.81035900       0.04264685    -609.19203601       1.28090943      -0.07291684      -0.91430081
H        5.91532183      11.03742027      10.36531639       0.03783129    -609.21558658      -0.45627056      -0.56614683       0.39287255
H       12.22157192       4.82630587       8.18293095       0.03349049    -609.22281561      -0.00739950       0.14975458       0.62415272
H        6.28714323      10.65990925       8.55546474       0.05717077    -609.14689748       0.98162866       0.85736709       2.48456549
H        0.78671831       4.54261494       9.77654171       0.04324571    -609.19849692      -0.31058953       0.23156632      -0.38839632
H        7.60590363      10.79983616       9.95341015       0.03837502    -609.20411924       0.51892746      -0.33490313      -0.13218676
H        0.84332240       7.48420095       1.92042959       0.03181988    -609.24346788       0.09931507       0.07703595       0.01056253
H        7.06491661       1.04646814       2.13569188       0.04025632    -609.22627263       0.98484807       0.44760962      -1.50958424
H        1.26399112       7.61983633       3.65245056       0.03605923    -609.23131564       0.71332944       0.06911815       0.68552873
H        7.22927094       1.14708912       3.89187288       0.04831139    -609.19333420      -1.47630731      -0.51480314      -1.28344786
H       11.85303211       7.82822466       3.12221146       0.03867755    -609.21919563       0.90011458      -0.22125037      -0.00154099
H        5.71277332       1.54195976       2.99463892       0.05695735    -609.15207668      -3.13674380       2.01868447       0.11258360
H       12.01045227       7.11421442       9.17590046       0.02105273    -609.36359943      -4.95930367       4.43342367      -1.30990741
H        5.60588217       0.87440854       9.84441280       0.01006213    -609.44402844      -0.59491777      -0.03887622       0.31615765
H        0.78665352       6.68425417      10.33542442       0.02320281    -609.33725995      -0.63907364       0.18740825      -1.52386585
H        7.23983574       0.65901405       9.83231544       0.01355136    -609.41112521      -0.82831831      -0.00398506      -0.60042148
H        1.22199929       6.72580528       8.78248215       0.01034997    -609.40464458       2.09276606       0.83573040      -2.14150930
H        6.30638123       0.60744679       8.42394733       0.01023452    -609.44023887       0.26877343       0.15015066      -1.31286142
H       12.45426655       5.34024286       3.99351478       0.02172331    -609.36461709      -0.17541409       1.32556747      -1.33953578
H        5.59046936      11.66663647       3.59222913       0.01846231    -609.35966098       1.28488440      -0.16024660      -1.25456445
H        0.95843846       5.31575918       2.53673530       0.00550755    -609.45491799       0.37882040      -0.37837332      -0.22450107
H        7.24996328      11.26980305       3.73111606       0.02932806    -609.31345558      -1.44994152       0.57088377      -2.03990194
H       11.64336014       5.74661636       2.47101641       0.00783970    -609.45277034       0.45726382      -0.54658743       0.57430732
H        6.47708988      11.15460491       2.11130285       0.02578646    -609.32486436       0.06624555       1.41182916       1.35851475
H        0.38373464       0.44946548      10.29289436       0.00835265    -609.41406381       1.13088273       0.74192293       2.86343744
H        7.40338182       6.88479280      10.11516380       0.00675121    -609.46188843       0.69445106       0.96491259       0.72121635
H        7.57066202       5.29948235       9.52411270       0.02503620    -609.37427585      -0.29179900       1.79481928      -0.42628083
H        0.91549802      11.33143711       9.23475456       0.02968384    -609.26426008      -0.39021685       2.23138875       1.06672929
H        0.56654215       0.65076536       8.71437454       0.01421824    -609.38401885      -0.26469050       0.49886110      -0.64674425
H        7.42044401       6.69847775       8.37046432       0.04476875    -609.27004761      -1.58044487      -0.83844426       2.44997429
H        4.96728563       6.98640299       9.56867599       0.06624407    -609.12587436       1.65186063      -2.10223224       0.30558840
H       10.45844746       1.05180538       9.18054962       0.04879079    -609.17209687       1.23394669      -1.30649366       0.16402513
H        5.49010324       5.49046516      10.65778828       0.05046144    -609.19638757       0.57427091       0.67692011      -0.97757493
H       10.88079071      11.97902584      10.18497944       0.05124276    -609.17291343      -1.07297613      -1.51370998       3.80792769
H        5.30601883       5.33335400       8.87118149       0.04598933    -609.20080374      -0.22029503      -0.44234473      -0.36967283
H       10.96775436      11.64439392       8.53599834       0.04046601    -609.21014762       0.92421418       0.81426468       0.69445910
H        7.40855026       6.65163183       2.27821279       0.04455943    -609.17118369       0.65014908       1.75134528      -1.28702900
H        0.92372316       1.04240000       2.26189470       0.05176307    -609.19267727      -0.26899613      -1.98568423       1.51184571
H        7.65398264       4.95233822       2.36636376       0.03251532    -609.20806270      -0.19007021       0.61378103       0.95902073
H        1.82224143      11.50676250       2.58747149       0.05638495    -609.15481105      -0.41878609       1.32199659       0.34786973
H        8.00787544       6.05021429       3.88114023       0.04962051    -609.17619483      -1.09478035      -0.40826567      -1.17122284
H        1.21352708       0.33247951       4.00154257       0.04489132    -609.21019646      -0.13802906       0.22243211      -0.30042410
H       12.10161495      11.31792450       3.99085474       0.01184095    -609.45771209      -0.51715050       0.86581993      -0.28282037
H        5.70744944       5.83159161       4.24486876       0.01181822    -609.43181490      -0.09979611      -0.87141747       2.00770609
H       12.03369999      11.11092377       2.37087083       0.01875283    -609.43484834      -0.05476925       1.04091546       0.23812227
H        5.25128078       5.15479422       2.82418156       0.01354850    -609.40174286      -0.15338581      -1.04066275      -0.55633331
H        5.54967451       6.74517918       3.05004215       0.00783570    -609.42865291      -0.57837327       0.30439491      -0.56374431
H       10.91090584       0.28449473       2.93440366       0.03175252    -609.34435867       1.67775776      -0.92972552       0.70383624
96
Lattice="12.299111366271973 0.0 0.0 0.397482693195343 12.292691230773926 0.0 0.0 0.0 12.580405235290527" Properties=species:S:1:pos:R:3:initial_charges:R:1:energies:R:1:forces:R:3 original_dataset_index=271 energy=-58454.57427252798 pbc="F F F"
Pb       9.96645069       9.56607914      12.03184223      -0.14101425    -607.45013995       0.16557213      -0.05711350       1.36734230
Pb       2.46099496       2.96546149      12.24197006      -0.11958985    -607.22441064       0.58945520      -0.02823480      -0.08618464
Pb       3.57037044       8.68899250      12.55390835      -0.13287495    -607.40616837      -0.16853007       0.19915128       0.23985516
Pb       8.61078548       3.68486357      12.63511848      -0.12312890    -607.09720783       0.07070882       0.18732805       0.95334294
Pb       9.76316929       8.66896820       6.30347109      -0.12560692    -606.98871918       0.27487743      -0.44273346      -0.67957466
Pb       2.91173768       3.48495293       6.23789930      -0.14909682    -607.50642066       0.04389850      -0.59359506      -0.02528322
Pb       9.32427979       2.76483440       6.70571375      -0.13089189    -607.13100543       0.15313381       0.36012012       0.29711728
Pb       3.42186594       9.34249496       5.98560715      -0.15361595    -607.31797039      -0.06704796       1.13014635       1.18176551
I        9.91857624       8.62389278       9.25290680       0.11161196    -608.54165736       0.01356921      -0.31938834      -0.44983711
I        3.67226911       3.32505345       9.20073795       0.12836079    -608.60983243      -0.06107118       0.27476519       0.78418264
I        9.52456760       2.40522766       3.82061195       0.12872829    -608.36399331      -0.30048074       0.88661129      -1.12731631
I        4.26758575       9.68054390       3.29561186       0.12294669    -608.45211178       0.20668547      -0.62851726      -0.83963889
I        2.69350791       3.13842797       3.09991860       0.13732815    -608.52853765       0.46937516      -0.26171480      -0.38146570
I        9.62750816       9.43218136       2.73904228       0.15980515    -608.44963408       0.01359829      -0.09260233       0.42913441
I        3.62348843       9.20640755       9.68511772       0.14082690    -608.56952747      -0.02594504       0.06985690      -0.34919849
I        9.22361374       3.31059980       9.90308475       0.13942802    -608.46214477      -0.00201783      -0.00610799      -0.74961698
I       -0.60153949       1.96804690      13.07306576       0.10492828    -608.47374185      -0.64590297      -0.41315764      -0.31452454
I        6.75595093       8.78573132      12.41725159       0.15239486    -608.35646294       0.06874284       0.25270803       0.21801669
I       10.21809959       6.32804775       0.12006092       0.14247769    -608.42512127      -0.43748955      -0.22095512      -0.09987562
I        4.27547264      12.30639839       0.04147436       0.13967024    -608.54235887      -0.23489207       0.33835346      -0.30129672
I       12.67045975       9.86657047       6.29014206       0.13738526    -608.54428134      -0.23370781      -0.07939791      -0.00444857
I        6.23364019       3.02584648       5.93617249       0.12307271    -608.29914971       0.11431952       0.94981489       0.83049932
I        3.23868823       6.50819111       5.85572433       0.13103709    -608.51099982      -0.12059194      -0.81092111      -0.10713624
I        8.90518570      -0.48047039       5.98688173       0.08877427    -608.25254580       0.70305995       1.42114349      -0.14377702
I       12.95903873      10.15173244       0.29447678       0.14144284    -608.30238513      -0.84663831      -0.50327950      -0.81106885
I        5.54095221       3.81616688       0.49472660       0.14186309    -608.50845392       0.00668031       0.19325115      -0.00723458
I        1.60550022       6.16203594      12.28288555       0.13579696    -608.53542021       0.64913825      -0.38202485       0.02145605
I        8.10862350       0.09089454      12.62186337       0.11696672    -608.42516477       0.85980777       0.70924437      -0.60402809
I        0.21242271       2.06776786       6.33652592       0.13600758    -608.53274243      -0.45614123      -0.01126597       0.36146810
I        6.46802664       9.08487034       6.94608831       0.14087483    -608.53383553       0.59500843      -0.19185230      -0.12066566
I       10.23657608       5.65143585       5.99288177       0.12741163    -608.61206614      -0.26791428       0.03828985      -0.10867159
I        4.24039221      12.67080212       6.30039310       0.15682039    -608.33835180      -0.32374014      -0.36985704      -0.04399601
N        6.33388615       6.27369785       4.12054491      -0.08766523    -609.77580491      -1.30103798       4.64139993      -0.08185076
N       11.82589722      12.18412399       3.58002257      -0.14186713    -609.79102008       1.38201679      -0.68230716       1.04190933
N        1.33233893       6.57327795       8.96606350      -0.05535823    -609.73887226      -1.20854620       1.08655967      -1.10751653
N        5.14790630       0.23708604       9.44987774      -0.13592784    -609.78958259       2.67130078      -0.62740996       1.73126928
N        7.05511427       6.39563179       9.51529789      -0.07541775    -609.65177551       0.63214913      -0.66328246      -1.27098242
N        0.62591732      -0.12518162       9.55973530      -0.06139563    -609.91634822       2.36414655      -0.05793232       0.58714253
N       12.48875713       5.06455374       2.53035903      -0.15189205    -609.73031465       1.18688047      -2.22499385       1.91712709
N        6.36090517      12.10441875       2.58040476      -0.16109252    -609.52530022       3.83060048       3.43665928      -3.07737493
C        6.33534098       5.97868204      10.47628784      -0.04576256    -609.85883889      -1.66906868       0.38214232       0.86189266
C       11.93714046      12.39302635       9.49005985      -0.11542319    -609.91237163      -2.35622796      -2.46423699       0.89327033
C        0.39017016       6.42959499       3.03041673      -0.11742196    -610.01420428      -0.49619480      -0.28226453       0.85462938
C        6.15199518       1.10116386       3.38762689      -0.17098118    -609.66264918       1.27124952      -0.03948349       0.41707175
C        6.16548347       5.04492760       4.03906965      -0.06191729    -609.84402335      -0.74452999      -6.29926287      -2.94775664
C        0.58807260       0.04888484       3.35570335      -0.12655662    -609.99651641      -0.76170244       0.27812045       0.67565711
C       12.48986912       5.65522289       8.86562538      -0.11100214    -609.89380661       1.79928561      -0.49301707       0.93725947
C        6.95182705      12.52444649       8.87706566      -0.11217181    -610.06514732       0.33240040       0.56403039       1.32348326
H       11.79726791       5.52067327       9.69669056       0.07427964    -608.99396489       0.41043568      -0.19804893       1.11900707
H        7.03105211      13.34599876       8.16080952       0.03183506    -609.23860932      -0.04130854       0.05768969       0.10332029
H       11.78129768       5.89170408       8.13470936       0.06565014    -609.04696956      -0.53565854       0.92582061      -1.74792383
H        7.65228558      12.68122673       9.75701427       0.03967728    -609.21236147      -0.60838398      -0.19243035      -1.12418465
H        0.65155983       4.70118380       8.55490780       0.05476862    -609.05777715      -0.51141614      -0.12720146       0.28537663
H        7.15775537      11.59656334       8.35518360       0.03223477    -609.23101379      -0.09674591      -0.33204252       0.15863516
H       -0.28223950       6.53683901       3.88359332       0.04050471    -609.21417149       0.09771042       0.12637906       0.18406402
H        7.01971626       1.15330565       4.02203941       0.04111871    -608.93448639       0.43229039      -0.14861655      -0.17165641
H        0.08089649       7.10565805       2.29362106       0.03072397    -609.19750979      -0.20691237       1.32927791      -1.14297697
H        5.29200268       1.11702240       4.00430632       0.03628929    -609.16964829      -1.05869580       0.38164065       0.62378207
H       13.73265362       6.53873253       3.36169672       0.03732002    -609.18879802      -0.24753451       0.04719391      -0.31437367
H        6.10808039       1.89754355       2.60160875       0.05073641    -609.09107362       0.34444199      -0.01734727       0.88691892
H        5.97973776      12.94032860      14.61154175       0.04819484    -608.88809465      -2.42581620      -3.37342839      -1.09955822
H        5.15493631       0.02383529      10.50139332       0.01386014    -609.40809764      -0.10383291       0.60605523      -0.89818952
H        2.07710934       6.30767584       9.55381012       0.05609176    -609.30444132       0.86997756      -1.15470057       0.75367219
H        4.71338415       1.12547457       9.26989937       0.00662198    -609.47600373      -0.72687732       1.04115776      -0.00374779
H        1.17791998       7.52826071       9.28634167       0.05124376    -609.29841754      -0.73249249      -0.01145825      -0.28139802
H        4.60333633      -0.48772568       9.07370949       0.01147446    -609.46387112      -1.29286135      -1.44700387      -1.12841772
H       12.99238300       4.82096386       1.65510321      -0.00271018    -609.42707458      -0.17301300       0.68420257      -0.06541488
H        8.20634079      10.68794155       6.32870197       0.18660709    -608.93636384      -1.53415264      -0.89708344       0.43046516
H       -0.72109520       4.56562948       2.52593446       0.01047142    -609.39947896      -0.03198231       0.99490485       0.08789729
H        6.17109966      11.26638412       3.07944965       0.03480598    -609.10270438      -1.49399079      -0.85049844       0.36786534
H       13.08520794       4.52985430       3.26779032       0.00395744    -609.39720151      -0.87224376      -0.13730910      -1.24335505
H        7.16567135      11.90257835       1.80480695       0.03243310    -609.39609304      -1.11465315       0.26990398       2.20641573
H       -2.10407901       1.02399945      12.55656624       0.18223408    -608.82477620       0.31566031       0.17201296       0.29153433
H        7.20803642       5.76031399       8.71723366       0.06948061    -609.13343572      -0.31288802       0.47488525       0.06878080
H        8.68158340       5.80513763      15.41025448       0.06461012    -609.05342373       0.16275563       0.11228790       0.18153535
H        1.67460513      11.51382828      10.09023666       0.06981484    -609.26035422      -2.12385231       0.74770779      -0.56041085
H        1.16547811       0.45945516       8.94280910       0.04397441    -609.43015693       0.09489767       0.09950079      -0.21371971
H        7.58045769       7.29784441       9.44620705       0.08464059    -609.07682603      -0.09830734      -0.45516441       0.66517261
H        5.57536888       5.18265390      10.44741821       0.07548430    -609.07661399       0.86514361      -0.54251185      -0.72712820
H       10.92229939      -0.82132006       9.12993145       0.08636367    -608.86685937       0.86778864       0.72249232       0.16753622
H       26.42828560      -1.04831028       2.23458123       0.04642867    -608.65313655       0.74111522      -0.27069638       3.43328768
H       11.73054600      13.12190437       8.70950031       0.05013917    -609.03775368      -0.02655544       0.51201799       0.26220971
H        6.22586918       6.55022526      11.39453030       0.07008199    -609.16184846       0.43748593       0.49115931       0.00855019
H       11.33689880      12.57878399      10.47395134       0.07123109    -608.97113242       1.11537155       0.41341451      -0.99830232
H        8.95439243       5.88694048       3.53604817       0.07468805    -608.96754644      -0.05487092      -0.12344690      -0.35370646
H        1.06491208      -0.75396478       3.92096519       0.03208686    -609.15547938       0.01843860      -0.03183853       0.20053496
H        5.08446407       4.68593264       3.78295135       0.08053713    -609.08137542       1.90174966       0.63522439       0.26708439
H        1.36071396      13.28279400       3.70542216       0.03120138    -609.18165783      -0.06038713       0.54937026       0.27854526
H        7.01445913       4.35002422       3.61663246       0.08759760    -608.75840960      -1.20986034       1.14123416       1.25406052
H        0.81580198      -0.07000710       2.33356142       0.04036099    -608.90297279      -0.38939070       0.52745641      -0.74215841
H       11.17573452      12.91832924       3.28297949      -0.01088354    -609.45136076       0.14650663       0.60286852       0.00931946
H        7.06911755       6.80966187       4.49253082       0.08778737    -609.05740253       1.96695750       0.25493824       0.28206620
H       11.77949524      12.01680851       4.60178757       0.00745984    -609.39341647      -0.65969727       0.09033157      -0.19150884
H       14.63481236      11.19242191       1.58390212       0.04820576    -608.80231796       1.26290604      -0.37528638      -3.93052232
H        5.59837389       6.93343067       3.84310007       0.06610051    -609.15873861      -0.46172448      -0.32811291       0.68178209
H       11.13466740      -0.96559185       3.13743234      -0.00371590    -609.51321793      -0.58376843      -1.14968802      -0.40533609
96
Lattice="12.299111366271973 0.0 0.0 0.397482693195343 12.292691230773926 0.0 0.0 0.0 12.580405235290527" Properties=species:S:1:pos:R:3:initial_charges:R:1:energies:R:1:forces:R:3 original_dataset_index=153 energy=-58458.364238285925 pbc="F F F"
Pb       9.92858315       9.97165680      12.32397270      -0.13527478    -607.16735349       0.32594686      -1.75701293      -0.36655715
Pb       2.51132107       2.74020648      12.25403404      -0.11578453    -606.94777698      -0.52758087      -0.21002657      -0.42512324
Pb       3.77831340       8.62630558      12.55039406      -0.12129256    -607.23726206       0.29314330       0.45550439       0.01091547
Pb       8.53298950       3.46790648      13.03934765      -0.11458480    -606.76920468       1.29219476       0.20964626      -0.14125039
Pb       9.35487080       8.77092648       6.08615255      -0.13693975    -607.42144446       1.16011396       0.04940101       0.34026606
Pb       2.79423690       3.15159321       6.00156403      -0.13374588    -607.32097155       0.49766612       0.72979079       0.24382637
Pb       9.51540852       2.54673266       6.74455833      -0.13777478    -607.40892728      -0.21114035       0.33649764      -0.93932396
Pb       3.30233812       9.83482075       6.53856277      -0.15594831    -607.07780761       0.30921457      -1.16588240      -2.17261744
I       10.36146259       8.37020683       9.18557262       0.15467794    -608.51429519      -0.18867971       0.13087974      -0.14863790
I        3.66972613       3.10225630       9.34476757       0.13780382    -608.41217507      -0.42727126       0.42364553       0.11778204
I        9.10456753       2.88663793       3.31592917       0.13200869    -608.40756168       0.66651059      -0.91694104       0.00227952
I        4.54915857       9.32667160       3.05577302       0.14279623    -608.60225741       0.09920233      -0.21435898       0.00338064
I        2.31460690       3.49987531       3.00902843       0.13894030    -608.52638453       0.17853260      -0.23406466      -0.03851347
I        9.68165493       9.26227093       2.75412774       0.14189282    -608.62963552       0.09484467       0.13585333       0.18480299
I        3.34860086       9.72534084       9.22185040       0.12655365    -608.56438847      -0.00238017      -0.26671809       2.59131726
I        9.50810432       3.14394522       9.53422451       0.13971174    -608.58904610      -0.20268993      -0.00901718       0.97021148
I       -0.65381676       2.28483176      12.90512085       0.09320281    -608.35913924       1.34080898       2.12560458      -3.29780785
I        6.84951210       8.47929573      12.44281673       0.15046997    -608.49823783      -0.24964041       0.08181477      -0.11933553
I       10.10862160       6.15170813      -0.26878503       0.15024826    -608.53063315      -0.11053206      -0.41203356       0.25012810
I        3.85885739      11.89265823       0.21130046       0.14186127    -608.48213268       0.62061042       0.74451817      -0.28942722
I       12.76762676       9.94441605       5.88780165       0.14336981    -608.52384780      -0.77911389      -0.08061230       0.42363104
I        6.41226721       3.99835539       6.44308949       0.15381050    -608.67793371       0.10934098       0.07328618      -0.19030184
I        2.80729508       6.75641012       5.85009432       0.16392791    -608.43668653       0.14631448      -0.70631469      -0.08730311
I        8.10420036      -0.20932063       6.19369078       0.14538075    -608.57887280       0.26279109      -0.10991826       0.25084018
I       12.95477962      10.28972912       0.07044270       0.12857048    -608.41724044      -0.59917767      -0.02405952      -0.92714379
I        5.45865011       3.57473922       0.07830710       0.07263651    -608.05706862      -1.66340913      -1.07892710       2.72672954
I        2.28236008       5.82980251      12.78452682       0.13605270    -608.38225941      -0.00697882       0.18463719      -0.55125780
I        8.49258995       0.27306044      12.70924377       0.11482618    -608.45593813      -0.58679390       1.12988898       0.44150741
I        0.33332682       1.62112832       6.56151438       0.12501825    -608.57625426      -0.69445646       0.24777027      -0.34259877
I        6.71261120       8.48031425       7.07853413       0.13487290    -608.53570301      -1.00461671      -0.06808376       0.04280429
I       10.59456444       5.75940704       6.00467014       0.16018724    -608.56719744      -0.13679608       0.04132696      -0.22142106
I        4.30947304      12.60105515       6.30886602       0.12188082    -608.46184860       0.64468293       0.74784383      -0.12335764
N        6.15679693       6.03499365       3.48361659      -0.14500406    -609.70504993       4.53559954       2.77962081       4.56400281
N       12.55504513      12.06540680       3.53879070      -0.15242802    -609.75503051       0.40688585       3.36768575      -0.91534799
N        1.15760362       6.30297804       9.04670525      -0.05923540    -609.80605596      -4.13363870       2.43303172       5.09336736
N        5.26905823       0.33100826       9.71821022      -0.14129664    -609.83058532       0.39679800       0.47314653      -2.86452311
N        7.61731529       6.10249615       9.33149338      -0.14500675    -609.74302043       2.02450222      -2.96575949       4.23448220
N        0.12038536      -0.01614766       9.32371426      -0.06389295    -609.64608387      -0.29884648       0.21212156       3.49262223
N       12.54960155       6.84845972       2.74365306      -0.13748458    -609.66531440      -0.87303302       1.38933836       1.66653269
N        6.94313860      11.89561844       3.12605476      -0.13186267    -609.81820405      -3.70450077      -0.63005107      -1.77755233
C        6.43193960       5.75152349      10.17853737      -0.12446983    -610.01014224       1.65170391      -0.55402610      -1.04264936
C       11.44797421      11.87049103       9.65857697      -0.12496671    -609.88539599       1.47051780       0.00359722      -0.66935691
C        1.20581949       8.06420422       2.69177604      -0.12178390    -609.99019513      -1.05602842       0.17184849       2.35831609
C        5.71947670       0.90908957       3.11266351      -0.10952303    -610.00274927       2.05969205       0.58007833       2.89936344
C        7.60698223       5.83187056       3.13362050      -0.12676103    -609.99142861      -0.02603640      -0.47358862      -0.76075072
C        1.22846115      -0.36448440       2.95372438      -0.11959454    -610.04304710      -0.31923493       0.36323658      -0.49820771
C       12.76134968       5.09864807       9.27379417      -0.10889637    -609.95408553       0.42297097      -0.76167454       0.00073989
C        7.03297186      12.04451180       9.89188766      -0.11513404    -610.01541385      -1.97043961      -3.61693643       1.02992101
H       13.28560734       4.45462942      10.14540577       0.07512595    -608.89267812      -0.95443760       0.54354106      -1.10292685
H        7.28327274      11.24023438       9.19683266       0.05294394    -609.16682578      -0.44143989       0.28842672      -0.70279002
H       11.66855431       5.31800461       9.59908772       0.06465729    -609.01823608       1.61730983      -0.55920530      -0.68644932
H        7.77215767      12.73044300       9.87278748       0.04905938    -609.17708230       2.23643656       2.56470518      -0.11808724
H        0.58670533       4.52256203       8.29244518       0.06558307    -608.97523712      -0.75873615       0.11581216       1.35153282
H        7.10395670      11.45221424      10.85686779       0.03746868    -609.19638997      -0.55133886       1.03007867      -0.71367949
H        0.96345121       8.80337429       1.87541759       0.03839437    -609.17808357       0.05159991      -1.06999491       1.03783460
H        4.71443224       0.65017694       3.46924043       0.04848833    -609.16469243       0.25794759       0.43117006      -0.07492106
H        2.19485760       7.65306091       2.68481159       0.03903083    -609.18223912       0.60015831      -0.41818411      -0.70064534
H        5.76195478       1.26743734       2.13564396       0.04920972    -609.15736814      -0.37991520       0.28296104      -1.94965123
H       13.52358246       8.46592808       3.75204849       0.04968535    -609.14147634      -0.51860883       0.13900132      -1.17268762
H        6.28744555       1.79391372       3.71355247       0.06744442    -609.10064855      -1.38664957      -2.31316642      -0.69567069
H        6.81778669      16.41394997      11.61529255       0.20083359    -608.68809725       1.50612604       0.86232053      -1.97720578
H        4.69778156       0.11905031      10.51938248       0.00940863    -609.46573289      -0.93510129      -0.42154642       0.64902997
H        1.90189362       6.45607090       8.49770355       0.07286181    -609.26951203       3.26358900       0.13935057      -2.52071252
H        5.16261053       1.39220119       9.55836105       0.01383829    -609.35802989       0.61999551      -0.68103450       0.61458150
H        0.98142219       7.09435654       9.78212738       0.06037444    -609.26044140       0.55239181      -1.90796840      -1.93855883
H        4.78876877       0.05745757       8.77436638       0.02448795    -609.34727643       0.59368997      -0.25706699       1.59060479
H       13.08004570       6.08894014       3.16396046       0.00438030    -609.42975521       0.24319153      -0.75342050      -0.39290460
H        7.64531422      11.76956367       3.80915618       0.01945487    -609.44606726       1.49713785       0.30370860       1.47120344
H       -0.06444781       6.71978188       1.81028366       0.00542502    -609.40283810      -0.21499869      -1.04396802      -1.44934545
H        7.30673313      11.76639462       2.17443609       0.00960499    -609.50169476       0.52134052      -0.07035784       0.06722679
H       11.62945843       6.85124302       3.31917691       0.02889584    -609.32117162       1.49365817       0.87084518      -0.42605960
H        6.23792267      11.03542137       3.24932003       0.02950208    -609.39392506       1.02482625       1.31050673      -0.22379685
H       -1.14220524       1.47552443      14.05025005       0.21087569    -608.69245154      -1.07784581      -2.17279740       3.02456661
H        7.65538216       6.99023438       8.99179363       0.01318633    -609.42284542      -0.33430845       3.89368681      -1.30704461
H        8.52356911       6.03142595       9.94385719       0.01701122    -609.29846658      -1.21023443      -0.15955446      -1.25368223
H        1.05274045      12.02412891      10.20471668       0.04701808    -609.19286716       0.33323759       0.06015991      -2.41036109
H        0.35526919      -0.21459089       8.36114979       0.04952996    -609.20135864       0.82272259      -0.61988871       0.44886522
H        7.67247581       5.50017452       8.55615520       0.00859942    -609.42834387       0.35608345      -1.40016826      -1.66780345
H        5.76171684       6.48822927       9.91006756       0.04487506    -609.14926713      -2.16829148       1.33667000      -0.16499523
H       10.42938614       0.22758693       9.12335396       0.05873036    -608.97292117      -1.86671574       1.85161649       0.21633116
H        6.75739431       5.89381266      11.18810844       0.01799584    -609.10798306      -0.05678988       0.12243400       0.68447487
H       11.31767941      11.65563869      10.72832394       0.02663933    -609.11070600      -0.15042522       0.78783870      -0.30107104
H        6.07476711       4.75646687       9.90859032       0.01948942    -609.16641165       0.03853382       0.08611288      -0.13260144
H       11.20067501      11.00389099       9.13123608       0.07025414    -608.92704431      -0.24485923      -2.21973366      -0.51770925
H        7.88216209       6.15620565       2.09647012       0.04003119    -609.22880248      -0.63796006      -0.28715315       0.56576824
H        1.76122737      -1.00806618       3.62549877       0.03409968    -609.21997841       0.53326366      -0.52828762       0.18516375
H        7.72642803       4.75611925       3.32518506       0.03131897    -609.17837502       0.22057566       0.49268603      -0.44624489
H        2.10518575      12.89679241       2.89117026       0.03816471    -609.19319268       0.05836239       0.39430574       0.26970053
H        8.33885479       6.30751753       3.78272009       0.04583914    -609.20052047      -0.42064110       0.45111848       0.53973902
H        1.17076588      -0.76617664       1.92516959       0.03231166    -609.20903405      -0.09588025       0.01806090       0.77202638
H       12.09233379      12.98678970       3.27871561       0.01127462    -609.35051536       0.32793536      -1.05324512      -0.47998484
H        6.10959721       5.63358688       4.54706860       0.03020641    -609.26520242      -0.31378341       1.35815389      -1.37750290
H       12.65670681      12.29202843       4.54048443       0.01443993    -609.29098923      -0.25578229      -1.03734607       0.64262553
H        5.64810944       5.41195583       3.03527594       0.02704561    -609.33005078      -3.44092309      -3.57742509      -3.27445253
H        5.88659954       7.00128603       3.26747608       0.01778104    -609.31887573      -0.73157927       0.36944130       0.60729729
H       11.57017136      -0.98752177       3.24844718       0.00082259    -609.35123944      -0.86044059      -0.91880727       0.41156868
96
Lattice="12.299111366271973 0.0 0.0 0.397482693195343 12.292691230773926 0.0 0.0 0.0 12.580405235290527" Properties=species:S:1:pos:R:3:initial_charges:R:1:energies:R:1:forces:R:3 original_dataset_index=155 energy=-58457.72255429195 pbc="F F F"
Pb       9.93960857       9.97742653      12.32256413      -0.13356619    -607.15397409       0.40797132      -1.72484371      -0.35774945
Pb       2.51906419       2.74406338      12.25222301      -0.12627609    -607.14838385      -0.42709782      -0.13960420      -0.20978138
Pb       3.77623653       8.63515663      12.54469776      -0.12186580    -607.24897390       0.09586194       0.43223250       0.09781779
Pb       8.52430153       3.46821046      13.04337120      -0.11525764    -606.94459763       0.97641346       0.27142325      -0.51099584
Pb       9.35475636       8.77101040       6.08354282      -0.13484783    -607.38117913       1.36335383      -0.00881592       0.30727420
Pb       2.79453993       3.15385175       6.00390244      -0.13375871    -607.31990262       0.40457395       0.76950984       0.20327146
Pb       9.51669979       2.54605365       6.75122213      -0.13822804    -607.39454867      -0.14529011       0.43101003      -0.89893778
Pb       3.30647659       9.84243774       6.54298973      -0.15202931    -606.98271553       0.33631977      -1.22079386      -2.37788856
I       10.35792065       8.36988735       9.17804337       0.15423307    -608.51016286      -0.27594891       0.14885325      -0.16997329
I        3.66688681       3.11567950       9.36827564       0.13604754    -608.42294552      -0.28157765       0.39103992      -0.09247765
I        9.10507870       2.87641668       3.30052876       0.12047955    -608.37579499       0.60309609      -0.82863249       0.16474308
I        4.55178976       9.33310223       3.05615568       0.14616153    -608.61674985       0.05573299      -0.24597297      -0.03331249
I        2.30866647       3.48898220       3.00130725       0.13872215    -608.52274287       0.15316499      -0.17910388       0.10540643
I        9.68297768       9.25545120       2.74677896       0.14243019    -608.62942878       0.04994596       0.14189277       0.19494698
I        3.35778761       9.71506691       9.20989609       0.12379184    -608.55452540      -0.02140225      -0.25052065       2.78701845
I        9.50261879       3.15015459       9.53869629       0.13923511    -608.58476574      -0.19933684       0.13812437       0.94477667
I       -0.65760118       2.27739596      12.91725254       0.09998102    -608.20005686       0.11612587      -0.19234333      -0.15389663
I        6.83926439       8.47788525      12.44722748       0.14997861    -608.51328104      -0.16252003      -0.09786072      -0.21240311
I       10.12326145       6.14114237      -0.25914782       0.15513498    -608.51519513      -0.11485570      -0.28402359       0.27255944
I        3.85687780      11.90227032       0.20499335       0.14194328    -608.47743965       0.68137341       0.61982703      -0.36397268
I       12.76857471       9.92902279       5.88350773       0.13701358    -608.56208809      -0.84158672       0.00354287       0.41438025
I        6.42502928       3.98791814       6.44349003       0.15557821    -608.70513672       0.14218658       0.08840213       0.08144634
I        2.81191969       6.74693584       5.84774113       0.16013737    -608.47125091       0.18191820      -0.66773042      -0.08245608
I        8.12213326      -0.22287963       6.18604660       0.14239161    -608.56500737       0.19730256      -0.19109994       0.21664744
I       12.95741844      10.28474331       0.08597308       0.13308774    -608.43331395      -0.54946277      -0.10668071      -0.83222977
I        5.45132542       3.57001758       0.08737473       0.09780370    -608.24534312       0.60187937       0.24747870       0.09973641
I        2.27561402       5.81748390      12.78039074       0.13886096    -608.37171526       0.06126364       0.30169703      -0.56934543
I        8.48814011       0.27688518      12.70910549       0.11515328    -608.42163497      -0.58109220       1.12719276       0.51069281
I        0.32186157       1.64541543       6.55432034       0.12925397    -608.57535904      -0.65742134       0.23758274      -0.24542388
I        6.71858406       8.47824097       7.08588266       0.12740941    -608.53065105      -1.03932626      -0.19002649       0.29724377
I       10.59290504       5.74756384       6.00364923       0.16148035    -608.56678258      -0.15529141       0.06300902      -0.22628683
I        4.29127598      12.59880257       6.29838228       0.11848272    -608.47085175       0.71146234       0.74358205      -0.05209044
N        6.16789770       6.09209251       3.50470448      -0.13778850    -609.72075477      -2.62169383      -3.02947756      -2.78893581
N       12.55066681      12.08057404       3.50249815      -0.15211128    -609.75701238       0.77022162      -1.94433497       0.96454970
N        1.13662148       6.39296150       9.00565434      -0.05154103    -609.78878543       0.38527469      -1.87701522      -1.02301548
N        5.30153704       0.33333674       9.73389626      -0.13999794    -609.85723550      -1.36462648       0.04093532      -2.27449434
N        7.59077597       6.11798668       9.40861702      -0.14316872    -609.97545647      -3.09679690       0.56177024      -5.04634599
N        0.15009217      -0.03742795       9.31878376      -0.06559420    -609.63082000      -1.54838305       1.90661441      -0.23430531
N       12.50889301       6.83477068       2.70139599      -0.13691595    -609.66363988       1.47113710       0.14096823      -1.41808046
N        6.95999956      11.94599915       3.16532516      -0.13736427    -609.80038939      -0.55384544      -0.41827648      -0.12669067
C        6.41131449       5.73597002      10.15712261      -0.17601167    -609.79788176      -1.19615331       2.29705607       0.89745011
C       11.45976067      11.91528893       9.67906475      -0.11321387    -609.77733089       1.08156631      -2.28712879      -3.87046605
C        1.17383206       8.05941963       2.69072580      -0.12400825    -610.00683941       0.11832767      -1.95081864       3.93255857
C        5.74324179       0.93510920       3.13698554      -0.10993057    -610.01606632       1.09331226       0.30648213      -2.10059048
C        7.59059095       5.83358383       3.12373090      -0.12475861    -610.07531589      -0.61452496       0.60015196       3.57514458
C        1.23945761      -0.35428923       2.97010827      -0.11624851    -610.00086845       1.12340903       0.01524241       2.03173165
C       12.74236393       5.08777571       9.23548126      -0.11078440    -609.91028701       2.68302707      -0.07435205      -0.69150158
C        7.06132412      12.08686638       9.89069462      -0.11174145    -610.05233508       1.68206156       1.44519701      -1.03673993
H       13.32637787       4.34382296       9.93155766       0.07491571    -608.96042083      -0.99327127       1.21625943      -0.00533676
H        7.23738480      11.28805351       9.15072060       0.05664823    -609.14344343       0.22991006       0.74265748      -0.38957015
H       11.73929024       5.35221577       9.51490021       0.05559526    -609.08091410      -0.53707137      -0.36144641       0.52091393
H        7.84711552      13.00776958       9.86258984       0.06324624    -609.12485380      -1.59106238      -2.43937231      -0.03534030
H        0.43482974       4.40574169       8.35921383       0.06855787    -609.03630126      -0.24804064       0.75271905      -0.28281557
H        7.11363268      11.51678085      10.79135513       0.03891515    -609.16516100      -0.00646594       0.09948779       1.06082352
H        0.89415812       8.82032394       1.99607813       0.03814405    -609.15731917      -0.15761615       0.15753293      -0.39493724
H        4.75065756       0.79185331       3.56875873       0.04580960    -609.17846719       0.08544055      -0.12290559      -0.34948359
H        2.20246148       7.63847828       2.69013023       0.04016316    -609.18622312      -0.58689131       0.29097802      -0.86385015
H        5.80187893       1.28477395       2.03304625       0.05320434    -609.15206459      -0.84788956      -0.89565393       1.43861404
H       13.46486473       8.36189175       3.80123329       0.05204640    -609.13350026      -0.35136650       0.22855170      -1.52206197
H        6.25476503       1.76180005       3.58789611       0.05122740    -609.15346198       0.48494548       0.11105865       1.04982725
H        6.58758211      16.83225250      11.17704010       0.18842123    -608.65770565      -0.47433070      -0.59919307       1.34528018
H        4.71827078       0.10515934      10.59514141       0.01744889    -609.45233697      -0.03349478       0.07607654      -1.00168297
H        2.00496459       6.51822805       8.35593605       0.07710118    -609.11574321      -2.09249302      -0.29653597       1.90004090
H        5.20827198       1.38569713       9.55491161       0.01854939    -609.36057673       0.33737367      -0.75038064       0.64486660
H        0.87351829       6.99715185       9.76898479       0.05441543    -609.27422935       0.73093017       0.64810263      -0.23719365
H        4.85282469       0.02181851       8.73577785       0.03685346    -609.32021615       0.55337218       0.22366966       2.52493877
H       13.08590126       6.05852842       3.11267972       0.00922029    -609.39974308      -0.32858975       0.00007903      -1.12730428
H        7.66625214      11.69507313       3.93128085       0.02526156    -609.36519100      -0.16467391       1.24386236      -0.62778912
H       -0.21695709       6.68375349       1.72619843       0.01548986    -609.34192211       0.72416880      -0.41551372       1.27714158
H        7.25900269      11.71344471       2.20661354       0.01266941    -609.44374270       0.92381570       0.38835619       0.14936316
H       11.75662804       6.85820103       3.35736394       0.01425166    -609.41766184      -1.22874703       0.83459683       0.88336344
H        6.31790495      11.16609669       3.27994680       0.01677063    -609.43092046      -1.10090316      -0.69776882       0.29762347
H       -1.51406145       1.80075014      14.29736710       0.16674902    -608.90792732       0.08289291       0.19854964      -0.02603672
H        7.54248190       7.15948534       8.85241795       0.04785344    -609.23260992      -0.41458550      -1.81715661       1.39916107
H        8.43975067       6.11624336       9.85418129       0.00850607    -609.41173371       3.06519902      -0.32880409       1.75390465
H        1.15262842      12.09605789      10.04810143       0.04846479    -609.34985569       2.04892430      -0.63853418       1.57510619
H        0.45956925      -0.27899978       8.38448334       0.05285750    -609.24647771      -0.05256368      -0.30135857       0.40421705
H        7.58206940       5.49213743       8.51014328       0.01697036    -609.39969570       0.62729877       0.60532149       1.13385382
H        5.59777021       6.51502037       9.97531414       0.04755079    -609.09479957       0.68948505      -1.38570682       0.28878410
H       10.36744976       0.36368936       9.07638550       0.06606190    -608.94695183       0.59894759      -1.54516830       1.83042415
H        6.59437037       5.85788298      11.26486778       0.03770450    -608.85972428       0.28830929       0.39594165      -0.78297632
H       11.37120724      11.61387444      10.74891472       0.04233218    -609.05858756      -0.27494187       1.16651252      -0.55440513
H        5.94658947       4.73894501       9.91852093       0.03564618    -608.85828582       0.22208974       0.19474750      -1.15743097
H       11.53225040      10.84369659       9.13016891       0.10092670    -608.75616321      -1.75238516       1.72911292       1.07420866
H        7.93081999       6.08076286       2.17355800       0.04316579    -609.21355063      -0.07583194       0.70921566      -2.07016650
H        1.70578206      -1.15008926       3.73940659       0.05152020    -609.13923258      -0.37336678       1.82617087      -1.99159183
H        7.65883684       4.79486132       3.36825752       0.03647576    -609.16287567       0.50809679      -0.54643973      -0.13174292
H        2.11868668      12.96296787       2.92331815       0.04839356    -609.15303769      -0.23202866      -1.11570640       0.56479230
H        8.23387814       6.36039209       3.86925411       0.04409285    -609.21632792      -0.32134279      -0.27605194      -0.45461515
H        1.18583298      -0.70484835       1.95605624       0.04112750    -609.16729995       0.06998644      -0.46079282      -0.21972742
H       12.09713268      12.92019367       3.26004076       0.00547852    -609.42769068      -1.07386247       1.29338744      -0.73653642
H        5.95412350       5.67579842       4.46446609       0.01396986    -609.36291994       0.29342657       0.60943041      -0.52492504
H       12.63241768      12.06965351       4.55176067       0.01445787    -609.35632970      -0.25378768       0.02882672      -0.26248566
H        5.47244883       5.36479521       2.77559066       0.07600366    -609.10426715       2.06238301       2.54897717       2.38679312
H        5.77805424       7.04089355       3.36364508       0.01882656    -609.31783917       0.03667534       0.32406796       0.19167718
H       11.62765789      -1.09217596       3.28007388       0.00567996    -609.36997374      -0.19611676       0.78887885      -0.04472248
96
Lattice="12.299111366271973 0.0 0.0 0.397482693195343 12.292691230773926 0.0 0.0 0.0 12.580405235290527" Properties=species:S:1:pos:R:3:initial_charges:R:1:energies:R:1:forces:R:3 original_dataset_index=29 energy=-58465.11929221036 pbc="F F F"
Pb       9.68757439       9.11791039      12.46512318      -0.14225738    -607.29887375      -0.52299487       0.95313225       0.23183187
Pb       2.98869896       2.84170485      12.29769421      -0.15858996    -607.38802852      -0.10635795       0.77914537       1.71914025
Pb       3.65968919       8.98007965      12.63744164      -0.13249946    -607.32278042      -0.62314723       0.18508835      -0.25661486
Pb       9.23203087       3.30292058      12.71553421      -0.16250110    -607.34881697      -0.19734733      -0.55903514      -0.16171619
Pb       9.65449429       9.14251518       6.30533791      -0.14029945    -607.33635154      -0.93919724      -0.51733988      -0.21935783
Pb       3.11584473       3.12207198       6.28258181      -0.14470616    -607.53335618       0.05814748      -0.12880625      -0.30963183
Pb       9.31722546       2.84169841       6.28284740      -0.12356135    -607.18839938       0.36188333       0.88536917      -0.21746381
Pb       3.45494056       9.25348091       6.15358448      -0.13109934    -607.24230636      -0.33775428       0.19867523       0.86281858
I       10.04118061       8.60972118       9.36025715       0.12277628    -608.60122266      -0.01704414       0.21952190       0.19257545
I        3.40613127       2.61255527       9.58692551       0.12646365    -608.59415056       0.21657467      -0.05161188      -2.00630144
I        9.56575489       2.89731646       3.00193453       0.13740452    -608.50202190       0.72756255      -0.40317558       1.69232713
I        4.06891870       8.92742538       3.31183290       0.12049247    -608.66950845       0.29698951       0.16977626      -0.66007170
I        2.73954248       3.74898767       2.98484802       0.14547464    -608.46822503       0.46532616      -0.60707802       0.66712719
I        9.55026340       9.78122139       3.21041679       0.13492356    -608.48514329      -0.66843241      -0.64606698      -0.18399205
I        2.72182393       9.57268047       9.72769356       0.14977887    -608.57848560       0.22096478      -0.13862884      -0.44577923
I        9.08099937       3.14180017       9.80691242       0.13537927    -608.48743262      -0.45947392       0.51813925      -1.56237392
I       -0.04229874       2.25433326      12.49290085       0.14279415    -608.59726036       0.13488475      -0.11997586      -0.41044997
I        6.52939939       8.41580200      12.31069756       0.13121143    -608.56458221       0.11883994       0.01087864       0.28971657
I        9.99220753       6.24263430       0.01285857       0.12250761    -608.54523245       0.57897150      -0.25887753       0.20738960
I        4.19655657      12.36242867       0.19566558       0.14328103    -608.61702815       0.34978946      -1.00863646       0.20882812
I       12.34040546      10.05286026       6.02205944       0.12752363    -608.58704765       1.10787016       0.31574769       0.14416881
I        6.16110134       4.06366348       6.04573536       0.14264093    -608.51264894       0.47854314      -0.41423336       0.76111671
I        2.52187729       6.11563778       6.40898561       0.13508329    -608.57631012      -0.08705158       0.90956658      -0.00977208
I        8.15902328       0.23541933       6.56288671       0.13034587    -608.53007146      -0.21403141      -1.01885421      -0.23500445
I       12.43422413      10.16329575      -0.06599490       0.13481109    -608.58707125       0.57724457       0.11525580      -0.02885803
I        6.24958277       3.91468382       0.24405199       0.15091832    -608.50475365      -0.86515767      -0.49005080      -0.62470813
I        2.39172149       6.05853891      12.58374500       0.14175594    -608.50617425       0.05182735       0.55157225      -0.54431803
I        8.35390186       0.22699106      12.41609192       0.15640458    -608.57358809       0.17582664      -0.24599479       0.14618738
I        0.26271737       1.84647381       6.65161276       0.14377610    -608.62424458      -0.50161592       0.09612631      -0.17975633
I        6.25128794       8.41009808       6.53824663       0.13738911    -608.54923954       0.50554951      -0.12644602       0.23897426
I       10.41612625       6.03188038       6.12547970       0.14731964    -608.58928875      -0.14679960       0.42529793      -0.41956035
I        4.58285761      12.55858231       6.17937136       0.14359008    -608.54918442       0.13128974      -0.79387903      -0.06872915
N        5.87014484       5.72948933       3.36090064      -0.13721293    -609.80542429      -1.07731972       0.82766624      -1.90918931
N       11.98031044      11.67490196       2.93754816      -0.14485353    -609.88313350       1.10270549      -0.39859958       0.82430524
N        0.51880568       6.53589869       9.25454140      -0.15016314    -609.63028912       6.17473196      -5.44941305       1.63098254
N        6.22837687       0.20534426       9.40126896      -0.13282891    -609.85274931      -2.18715534      -2.20037735      -1.78757621
N        7.46881723       6.21054268       9.28150082      -0.13134648    -609.82390926       2.02304771       1.25783891       0.18995517
N       -0.35226297      -0.10309051       9.49032116      -0.14996722    -609.52072196       1.70434903       0.01547601       3.19002606
N       12.74885941       6.07818508       2.84226465      -0.14045997    -609.74852759       0.56092758       0.80999884      -2.58137837
N        6.71675730      11.62062263       2.87658548      -0.13520108    -609.68765112       2.27642494       0.25949092       1.38388052
C        6.10580397       6.00836897       9.88134193      -0.10589573    -610.05266297      -0.66356415       1.14110676      -1.26758299
C       10.87183762      12.49768925       9.27297401      -0.14296229    -609.93536913       5.79668684       0.60819544      -6.96225554
C        0.63862801       7.55289221       2.72818327      -0.11381204    -610.02652793       0.24721023       0.34351540      -0.90642640
C        6.69396257       0.79228437       2.89692640      -0.11131202    -610.02403814      -0.07199336      -0.62940440      -1.14321394
C        7.25165892       5.42870903       2.87986875      -0.12381542    -609.96248008       1.25611555       0.67387823      -0.11310298
C        0.56165683       0.09819502       2.83702040      -0.10524898    -610.03555611       2.81495966       1.36315077      -0.26339851
C       12.33368874       5.16874266       8.99139690      -0.11531108    -609.94699268       0.33272705      -1.67227492      -0.71517102
C        7.01270056      11.08216000       9.76603413      -0.11141808    -610.00764691      -0.19011581      -3.01393869      -0.83996375
H       11.29717064       5.20324278       8.59779358       0.04003734    -609.15621322       0.41730186      -0.06751367       0.82994703
H        6.20129395      10.53009129      10.31122684       0.05410710    -609.18323328       0.46112865       1.04836855      -0.06115079
H       12.93182087       4.73585844       8.13641167       0.04316558    -609.16958977      -0.43109552       0.67881269       0.64033664
H        7.16905403      10.29851627       8.89923191       0.06884112    -609.15194671      -0.30175192       2.09650635       0.70815612
H        0.25038812       4.43531322       9.80267334       0.04976924    -609.15695081      -0.53619922       0.90377294      -0.02393619
H        7.96052122      11.00292206      10.34277725       0.04834689    -609.20638615      -0.75236076       0.61644881      -0.23182616
H        0.40576014       7.91598606       1.70790386       0.03258004    -609.22494914      -0.18943807      -0.47458016       0.34797072
H        7.55696487       0.93879420       2.20873499       0.03348059    -609.19759572      -0.45147978      -0.28119722       0.59045631
H        1.70127749       7.84838820       2.87672853       0.03819859    -609.22710604      -0.64269720      -0.51799107       0.38213148
H        6.96004868       0.98629177       3.91885376       0.03126486    -609.22802017      -0.11754667       0.60754716       0.46690807
H       12.25768375       8.01657104       3.43383098       0.03394315    -609.24113825      -0.01127425       0.25900420       0.27448986
H        5.85275030       1.35282242       2.45502281       0.04533463    -609.16914841       0.17632688      -0.03825390       0.53630656
H       12.30738831       7.19640207       8.98517513       0.04662115    -609.26615924      -6.80980503       6.67711344      -3.28495076
H        5.49553871       0.55322349      10.09294319       0.01662193    -609.33990460       0.75938659      -0.14881996      -1.01314778
H        0.76994568       6.89460850      10.16470909       0.02245619    -609.29631731       0.46263703      -0.83685748       1.41218759
H        7.06116629       0.73730701       9.45646667       0.01376268    -609.38506978       1.16717249       1.40092645       0.09768972
H        1.33224666       6.74444818       8.64447880       0.01269595    -609.35882689       0.65812536      -0.47494075       0.05766665
H        5.86222887       0.21579550       8.29766369       0.04394410    -609.21927193       0.46780437       0.30887556       2.79331987
H       12.68942833       5.84961510       3.78390455       0.00616180    -609.45870455       0.45634662      -0.95779204       2.64042731
H        5.80832863      11.44326687       3.18829679       0.00831174    -609.46628603      -2.26591375      -0.15483728       0.98741298
H        1.18836653       5.50924683       2.30780387       0.00676096    -609.36577214      -0.36831212       0.51417455       0.87633788
H        7.37112522      11.00645638       3.45585775       0.01292953    -609.40766447      -0.34603451       0.78241889      -0.35727862
H       11.86389351       5.76504278       2.47239447       0.00861536    -609.43478137      -0.88676193       0.03915647      -0.63822175
H        6.77383709      11.19300842       1.99302530       0.00519870    -609.49697430       0.19544604      -0.42025049      -2.22716790
H        0.05848847       0.46255249      10.36518955       0.02684697    -609.35557611      -0.87477671      -0.75997267      -1.86247719
H        8.07914162       7.06560278       9.79147148       0.04335439    -609.31730173      -1.60676121      -2.22028257      -1.47920065
H        8.11341858       5.29672670       9.33523846       0.02797324    -609.39577947      -1.21677904       1.44492114      -0.04300260
H        0.23586106      11.18782616       9.80103970       0.01574508    -609.37608071      -0.05277261       0.95093380      -0.86439299
H        0.12443354       0.21543567       8.64018726      -0.00107935    -609.41977787       0.74564647      -0.32315235      -0.18123097
H        7.32724571       6.50126839       8.26876831       0.01584734    -609.45181281       0.50624232      -0.32142632       0.96964419
H        5.44194794       6.97048092       9.51175022       0.07726651    -609.09278313       1.37041114      -2.40944997       1.04383318
H       10.65193367       1.21602917       8.84398270       0.04280353    -609.05432447      -1.16172910      -0.43588511       0.44494686
H        6.28349495       5.99368715      10.98391056       0.04644813    -609.15962130      -0.76327895      -0.26766411      -0.87657654
H       10.59247398      12.45841312      10.18797684       0.05980169    -608.96788085      -3.72095023      -0.56683680       5.57081013
H        5.74466991       5.03675985       9.40573597       0.05943511    -609.14629364       0.01708099       1.14602460       0.92833276
H       10.77934074      11.82439899       8.40300083       0.04579502    -609.05589875      -1.70290101      -0.06027358       0.83930810
H        7.62049341       6.26605082       2.19910502       0.04739891    -609.23622805      -0.32646565      -0.78408003       1.17329584
H        0.54479051       1.23111880       2.58480835       0.05456868    -609.17269970      -0.64542748      -1.82664238       0.51286112
H        7.35670137       4.53562164       2.27396011       0.04475073    -609.12939342      -0.90004203      -0.04794716       0.00545369
H        1.55937839      11.92864513       1.97004008       0.04810880    -609.21632144      -0.74949606       0.46374770       1.25509931
H        7.93839741       5.14174509       3.69242430       0.04852986    -609.14624303      -0.27330143       1.03882969       0.28524099
H        1.16898906      -0.01300206       3.80591178       0.05377242    -609.18165813      -0.90676916       0.06143964      -1.22549162
H       12.06224632      10.97232723       3.73744702       0.01921185    -609.33877637       0.10406460      -0.09152783      -1.04263780
H        5.73710203       5.51776552       4.39431953       0.00432543    -609.42803887       0.39649996       0.61711588      -0.40980999
H       11.75437355      11.25276756       2.00382900       0.00954055    -609.41505343      -0.14283580      -0.12787221       0.44458560
H        5.10823965       5.07812166       2.92463326       0.02628925    -609.34748033       1.06209719       1.06153199       0.22209150
H        5.67875433       6.76834679       3.04490352       0.02616210    -609.30689187      -0.29017001      -2.08250413       1.14506538
H       10.81377697      -0.10053957       3.31418014       0.01711743    -609.40281824      -0.95000741       1.23996737      -0.20744569
96
Lattice="12.299111366271973 0.0 0.0 0.397482693195343 12.292691230773926 0.0 0.0 0.0 12.580405235290527" Properties=species:S:1:pos:R:3:initial_charges:R:1:energies:R:1:forces:R:3 original_dataset_index=289 energy=-58452.64837728158 pbc="F F F"
Pb       9.90239239       9.47932339      12.09648895      -0.15571231    -607.53462857       0.23758156       0.02329237       1.04059891
Pb       2.55432892       3.05228806      12.23111439      -0.12071022    -607.26973500       0.35454629      -0.10675531       0.11398669
Pb       3.53078794       8.62839603      12.57562447      -0.12812759    -607.31853782      -0.32647771       0.58647796      -0.02090248
Pb       8.63564587       3.70398211      12.66423988      -0.09926586    -606.61525185       0.55945973      -0.20012188       0.25976889
Pb       9.84867668       8.65828991       6.31256533      -0.13149036    -607.22680234       0.23081401       0.77080479      -0.47149379
Pb       2.91974449       3.40730762       6.30472040      -0.14178568    -607.39194566      -0.12436268      -0.12421495      -0.37609473
Pb       9.32792759       2.78592587       6.71181631      -0.13973141    -607.41624899       0.02090041      -0.50454946      -0.41445749
Pb       3.38291717       9.33671188       6.04569721      -0.14860146    -607.21209462      -0.44327751       1.09356727       0.77635498
I        9.84568310       8.63534737       9.28805447       0.11940958    -608.49953913      -0.00213764      -0.32916819      -0.66865715
I        3.66390395       3.33044314       9.23718643       0.12143027    -608.58819415       0.13683025       0.28011178       0.75396786
I        9.59024906       2.43970442       3.70693207       0.13293767    -608.44469205      -0.26436524       0.58899822      -0.77893022
I        4.32746172       9.64267540       3.31105328       0.12973440    -608.37296846      -0.45667157      -0.78056583      -0.64729316
I        2.85173321       3.04974079       3.03943825       0.14295067    -608.56277022      -0.50371129      -0.04326087      -0.01922237
I        9.56774044       9.48591614       2.75001478       0.14975175    -608.50770580      -0.45235200       0.00753140       0.22823595
I        3.64134240       9.14113808       9.55890942       0.14413320    -608.52278596       0.08135584       0.03563609       0.16261451
I        9.19393730       3.29899335       9.77160740       0.13030377    -608.46907968      -0.13808629       0.26769175       0.39135667
I       -0.66878569       1.90354824      13.07052803       0.06720636    -607.84711858      -3.83829939       2.45502737      -0.91105634
I        6.74196815       8.88691711      12.36646843       0.15203153    -608.42833038      -0.23324204      -0.06569864       0.23868430
I       10.15756702       6.43408203       0.16677144       0.13184801    -608.37527593      -0.27597025      -0.50807947      -0.75324878
I        4.34837675      12.38701248       0.01393974       0.13750035    -608.49928463      -0.24560070       0.04202756      -0.40194527
I       12.76268101       9.91017723       6.46842003       0.13150807    -608.54140495      -0.45984886      -0.14607488       0.01045597
I        6.08574533       2.96807671       5.91604757       0.13908549    -608.35839368       0.76165995       0.79091584       0.35770014
I        3.30220294       6.54272413       5.84286833       0.12755056    -608.56614074      -0.02687801      -1.37386880      -0.24944252
I        8.97791100      -0.44375381       5.98950815       0.14790805    -608.36316872      -0.28558344       0.00027747       0.75111755
I       12.86877060      10.11762047       0.20530805       0.14465915    -608.51512897       0.29588340      -0.02814102       0.04829334
I        5.47233009       3.89317799       0.50136554       0.12959392    -608.30969778      -0.16441708      -0.27597655      -0.24274826
I        1.70801640       6.20720768      12.16297150       0.13182835    -608.53441222       0.20898542      -0.48298741       0.24751666
I        8.19020367       0.05988954      12.46116161       0.11416198    -608.44773127       0.72278346       0.89566568       0.79936856
I        0.22224081       2.09279346       6.38435793       0.13728933    -608.43257464      -0.49307131       0.49663634       1.05702763
I        6.44177580       9.19989967       6.88518381       0.10074676    -608.39897421       0.43938688       0.20489329       0.07786963
I       10.13926029       5.68139315       6.03672743       0.12064434    -608.49337970      -0.26799345      -0.09842179      -0.05262980
I        4.17987204      12.55431652       6.34448862       0.13706170    -608.35913593       0.00646634      -0.67893475       0.06705933
N        6.33571196       6.12905931       4.14725494      -0.07349318    -609.59015962      -1.18425314      -2.40613268      -2.09201705
N       11.79947376      11.84470940       3.67701721      -0.14694302    -609.75015313       0.12195606      -0.77493789       0.33863407
N        1.38817525       6.47587156       8.72835732      -0.05333053    -609.76509580      -2.09100609      -0.93784419      -0.89540385
N        5.22361612       0.22739625       9.44837475      -0.13633905    -609.83398164      -0.14787346      -0.51912411      -1.26108770
N        6.99047279       6.60920954       9.87512779      -0.08607169    -609.55627798       0.13075579       2.10714116      -3.15550755
N        0.68421566       0.19854082       9.44724560      -0.05917165    -609.74364318      -2.42317928       0.77643084       3.03684331
N       12.03385067       4.78627443       2.55815816      -0.16812608    -609.75851087       0.97888812       0.38525091       0.25923151
N        6.29390383      12.06470871       2.57825565      -0.15471716    -609.51882357       3.29053208      -7.50858888       4.10139638
C        6.30796814       6.09992266      10.80550671      -0.05785249    -609.85794100       0.32948656      -0.64912157      -0.37395289
C       11.90196896      12.19959164       9.51526070      -0.11103653    -609.87993274       0.54580658       0.25473765      -3.19381432
C        0.17970283       6.06754303       3.17573881      -0.11465684    -610.04165095       0.27296327       2.31992367      -0.88089568
C        6.46594572       0.66974217       3.51162291      -0.12623292    -609.82257310      -1.14747492       3.36339519      -0.35875799
C        5.92577219       4.90666389       3.62830043      -0.05059597    -609.67047238      -1.51138974       2.91124321       2.55343850
C        0.27881786       0.45545882       3.67336941      -0.12326393    -610.10962635       0.06457968      -0.40154102      -1.78321350
C       12.46138477       5.62864590       8.92080593      -0.11004055    -609.83576769       1.76825516       2.02999357      -1.02269326
C        7.11358023      12.51618576       9.16480827      -0.11186302    -610.05809095      -1.57437785      -0.63733711      -0.60108078
H       12.18856621       5.62979412       9.94469929       0.06911477    -608.97187030      -1.33373546       0.56038609       1.13091231
H        7.25991344      12.96887684       8.19041061       0.03179420    -609.25990903       0.04844091      -0.36691473      -0.55418600
H       11.70799637       5.80876923       8.12345314       0.05302692    -609.07344381       0.20721497       0.10230890       0.96033453
H        7.55277109      13.18817711       9.84055519       0.03719243    -609.18230991       0.69310524       0.80870436       1.19116387
H        0.50249553       4.64894342       8.82164764       0.06903084    -608.93460780       0.57728510      -2.10219643      -0.66875382
H        7.51682186      11.50219917       9.27766323       0.03615047    -609.20565650      -0.03754753       0.20336740      -0.20573464
H       -0.25366694       6.23061085       4.18298483       0.03719287    -609.23099113       0.10968568      -0.46316740      -0.51857042
H        7.40823889       0.48098001       4.02626467       0.03921345    -609.14772093      -0.27349240      -0.57653974      -0.09062943
H        0.01301402       7.01042414       2.55902433       0.04548896    -609.16171295      -0.18753864      -1.25143603       0.37607115
H        5.77160025       1.30731547       4.11657190       0.06411081    -609.07589110      -0.06262144      -1.66425311       0.06317252
H       13.55626583       5.95026779       3.25415063       0.03825707    -609.22445099       0.30855490       0.27872824       0.19979946
H        6.56799221       1.43886840       2.77266669       0.07553359    -609.01412919       1.50444794       1.61649273      -0.19932779
H        7.32767105      11.26170826      14.95757484       0.11572992    -608.79606320      -2.32822649       1.29389042       0.84753465
H        5.00644064       0.06561170      10.44210243      -0.00040945    -609.51072307      -0.05709771      -0.30423046       0.58287203
H        2.25198936       6.02060461       8.89223289       0.04776556    -609.36718895       0.75556929      -0.00897616       0.32820195
H        4.81766701       1.17791533       9.25581646       0.00617015    -609.47626427       0.09595650      -0.34074973      -0.09458788
H        1.34143186       7.47244787       8.79903603       0.05101773    -609.28302978       0.04094706       0.24349689       0.29574580
H        4.64099312      -0.47093579       8.86440468       0.01627875    -609.43413176       0.94364087       1.03153203       0.82863512
H       12.09626961       4.63366795       1.53312206       0.00919717    -609.28426150       0.19255345       0.66795206       0.32504374
H        5.86308765      10.84700012       6.91277504       0.18406883    -608.83010501      -0.03332199      -0.09854966      -0.25933164
H       -1.19369054       4.48617983       2.84866548      -0.00421411    -609.21490770      -0.49446674      -0.44467477       0.40504593
H        6.36975288      12.16652775       1.65870118       0.04124252    -609.17815475      -0.42127696       2.10776749      -5.07484760
H       12.77986336       4.24643135       2.99955678       0.00178645    -609.33392189      -0.07893810      -1.75873197      -0.19736250
H        5.62418127      11.24433708       2.77375150       0.00906297    -609.19798569       0.25210393       1.39405814       0.33369086
H       -2.46451354       0.88218361      13.35474014       0.17951126    -608.62613192      -0.58591878      -0.31845148      -0.86140636
H        7.98159981       6.34847546       9.64423847       0.07487177    -609.09775862      -1.00390385       0.16223576       0.13718067
H       10.29084778       5.95581055      15.56222153       0.03902395    -608.90722399      -0.92050631       0.15058296       0.25804010
H        1.36303902      12.11350155      10.36500740       0.04356124    -609.31287431       1.22437351      -0.34842520      -1.10272899
H        1.00558352      -0.16845527       8.58681965       0.05016779    -609.31306514       1.07715321      -0.94630961      -0.46145326
H        6.50168133       7.37245369       9.28902531       0.07180792    -609.07004799       1.32225464      -0.89417605       0.99647635
H        6.77497530       5.18105984      11.13848114       0.05839930    -609.10330634      -0.55521993       0.13141508       1.04947936
H       11.29540443      -1.24468839       9.43805695       0.07675847    -608.98297309      -0.14885877       1.94101917       0.62699804
H       26.10578346       0.38763651       1.01644158       0.17848474    -608.61028556      -1.75688337       1.40717801      -0.84046619
H       11.59619904      12.66892529       8.51444149       0.06579208    -609.02362875      -0.41950939      -0.89832144       0.93389476
H        5.31281996       6.50196838      10.95483112       0.06551600    -609.13347441      -0.21403963      -0.48434431       0.35123268
H       11.37347412      12.85159588      10.23131180       0.06311090    -609.09529123       0.23068549      -0.79855457       0.38907271
H        9.60580826       5.82848883       2.69996214       0.04526035    -609.00541674       0.08030655       0.04968267       0.41889417
H        0.96201456       0.00997028       4.38138390       0.03532246    -609.20810198       0.53145535       0.10111276       0.15209897
H        4.78173304       4.55801296       3.94667840       0.09575201    -609.03303489       3.01337072       0.89238392      -1.20670585
H        0.42403895      13.76987839       3.94013429       0.03454730    -609.12777115      -0.24459814      -0.25376858       0.00140212
H        6.43142033       4.59278965       2.72242665       0.09089349    -609.05005178       0.25732818      -0.82423019       0.34789621
H        0.68284160       0.46584487       2.64537454       0.04179749    -609.11496593       0.15446835      -0.18437354       0.46320158
H       10.89521122      12.19233608       3.27308869       0.00543954    -609.38999927       0.84160753      -0.16552471      -0.26587587
H        7.13578749       6.65573645       3.74570251       0.08166742    -609.08633573      -0.61827336      -0.46478815       0.40623790
H       11.53042984      11.70072174       4.66151810      -0.00048062    -609.42616271      -0.24489211      -0.02548039       0.34436762
H       13.41756725      13.23752213       0.78471464       0.06614862    -609.09843403       5.16984309      -3.61877598       1.52653182
H        5.53110123       6.63327789       4.54825115       0.06819918    -609.07625432       0.49791400       0.25913047       0.50775840
H       11.65789890      -1.42536891       3.36532712       0.00879156    -609.41222642      -0.58737463       1.09629599      -0.22199162
96
Lattice="12.299111366271973 0.0 0.0 0.397482693195343 12.292691230773926 0.0 0.0 0.0 12.580405235290527" Properties=species:S:1:pos:R:3:initial_charges:R:1:energies:R:1:forces:R:3 original_dataset_index=35 energy=-58461.41575836239 pbc="F F F"
Pb       9.72079182       9.10792351      12.44161129      -0.14093693    -607.18638326      -0.68405112       1.29584926       0.24185510
Pb       2.94006443       2.79598689      12.24932957      -0.15910725    -607.32789254      -0.19561132       0.98446067       2.08970046
Pb       3.72186017       8.92614174      12.64778328      -0.13119912    -607.25009065      -0.88658056       0.25452488      -0.25630355
Pb       9.20600510       3.35439849      12.74774647      -0.16300482    -607.27211914      -0.24670171      -0.58982214      -0.07226050
Pb       9.67530918       9.12058735       6.30544853      -0.14159015    -607.29498120      -1.07734654      -0.62208074      -0.26151213
Pb       3.10060072       3.13499117       6.27652264      -0.14677216    -607.55307159      -0.06291944      -0.15284767      -0.35905501
Pb       9.31674862       2.79807758       6.27875185      -0.12116719    -607.11175964       0.51642974       1.07698480      -0.22944129
Pb       3.46778059       9.26747799       6.13204384      -0.13200812    -607.18941103      -0.54891463       0.20859341       1.06184563
I       10.10655117       8.60157967       9.34400463       0.11746355    -608.59964295      -0.14113819       0.19791712       0.30523768
I        3.40398335       2.63592362       9.58284664       0.12585060    -608.59187075       0.36731382      -0.06514636      -2.35053477
I        9.50574875       2.91268492       3.00372386       0.13629250    -608.50262482       0.89347879      -0.41789303       1.82135976
I        4.11106634       8.92647076       3.34015489       0.11961288    -608.65519136       0.27562974       0.14557304      -0.86671566
I        2.70368409       3.76911044       2.96177554       0.14817722    -608.40794753       0.32796785      -0.55530937       0.70235526
I        9.60493374       9.77370358       3.22250724       0.13686223    -608.47644739      -0.77611895      -0.79023642      -0.33918765
I        2.69797707       9.59641361       9.78799438       0.15305750    -608.50505672       0.30760500      -0.16294116      -0.52413365
I        9.14270210       3.10697412       9.86125565       0.12975810    -608.45861392      -0.55179821       0.75486656      -1.66217282
I       -0.07725222       2.26319981      12.52042580       0.14030296    -608.55763946       0.04324982      -0.21877499      -0.55264928
I        6.54810572       8.43199635      12.30819416       0.12958348    -608.52118943       0.20860895       0.03761272       0.28958188
I        9.93070602       6.27216721      -0.03805762       0.11456563    -608.54515903       0.68512073      -0.50777609       0.21742434
I        4.16728497      12.36574650       0.18989810       0.14432763    -608.62969994       0.41297961      -1.19576246       0.24420207
I       12.29763603      10.05331421       6.02247858       0.13448097    -608.53455171       1.33825583       0.36761401       0.14318505
I        6.15112543       4.08952761       6.06351614       0.14594775    -608.52088380       0.51240103      -0.29398356       0.68316688
I        2.54764175       6.12519407       6.38116360       0.13569203    -608.55366200      -0.13736127       0.97830421       0.07010335
I        8.10492802       0.26673010       6.56777859       0.12990484    -608.49049771      -0.33336486      -1.15996467      -0.24942280
I       12.40560627      10.18206024      -0.14408489       0.13629535    -608.54226143       0.74013891       0.08374226       0.20814463
I        6.22871208       3.89388561       0.22948198       0.15171784    -608.52699881      -0.70214747      -0.22022971      -0.23648665
I        2.38788605       6.04293633      12.63420486       0.14061332    -608.47043567       0.14147150       0.54195996      -0.74074187
I        8.35520458       0.26934022      12.43936253       0.15627620    -608.51428613       0.18862259      -0.23554916       0.33956340
I        0.28719291       1.76780927       6.67536211       0.15331046    -608.56225788      -0.44958531       0.14517064      -0.16106005
I        6.21009827       8.42816734       6.54327297       0.14195973    -608.49765514       0.66192442      -0.12998400       0.27875438
I       10.43960476       6.02352905       6.13679409       0.15083620    -608.56191287      -0.26603171       0.45695133      -0.39306986
I        4.64068031      12.61544418       6.20761156       0.14064722    -608.53044617       0.08308857      -0.88029089      -0.04694372
N        5.85968590       5.73094845       3.31702280      -0.14064305    -609.72508823      -2.64454332       1.84325301      -0.42187411
N       11.94696426      11.69098091       2.89899540      -0.15270551    -609.78090028       2.11198956      -1.24192878      -1.72753277
N        0.57341355       6.53177881       9.21495342      -0.16432741    -609.46514600      12.86422667      -8.92192888      -2.24112797
N        6.19344425       0.08288361       9.43187237      -0.14395553    -609.68557609      -4.12625728       3.22654030      -1.67005763
N        7.57208824       6.19496107       9.21217632      -0.13990289    -609.84621538       2.92152122      -0.26997453       3.90645042
N       -0.49827781      -0.16657354       9.55640411      -0.14637513    -609.72040236       2.39669203       3.54410521       0.58051383
N       12.76001740       6.18701601       2.80767202      -0.14680524    -609.74907083       1.55487185      -0.59002243      -0.06095094
N        6.76326704      11.57035637       2.79083395      -0.14149205    -609.72072215      -1.10297778       2.41268376      -1.22430475
C        6.30777168       6.02204227       9.86106396      -0.11187147    -610.01150177      -4.10164929      -0.86040316       2.82698751
C       10.87075329      12.48700714       9.21254635      -0.14200838    -609.91086065      -0.24443513      -1.06976523      -2.72265000
C        0.63320643       7.66062403       2.66686249      -0.11997654    -610.02041552       1.24745066      -0.35248109      -0.76161037
C        6.70159006       0.72588724       2.87993741      -0.11591948    -609.93965071      -0.78717238       1.72690482      -1.38943131
C        7.24779606       5.35182762       2.98984003      -0.12311045    -609.99170017       0.13431433       4.51846242      -0.73916983
C        0.52482414       0.13783333       2.82206106      -0.10620394    -610.02165420       1.66526935      -0.62625369       0.08767755
C       12.37598610       5.18020630       8.92952347      -0.12973496    -609.80591140      -0.41694897      -1.87690593       0.23729868
C        7.09203625      11.06307316       9.76011467      -0.11825394    -610.01884097       0.35443531      -0.08441864       0.73584443
H       11.34339046       5.26068068       8.62552261       0.04465186    -609.13811338      -0.14670300       0.09029276      -0.86312026
H        6.24260569      10.59748745      10.39672852       0.05592846    -609.08480834       1.50878484      -0.07043999      -1.52445922
H       13.00679207       4.59464359       8.20558071       0.03359545    -609.19086562      -0.68013506       0.50832819       0.87210055
H        7.41591406      10.66485405       8.74749851       0.04604565    -609.14205813      -0.32609621      -0.50519531       1.60540817
H       -0.08656291       4.74780512       9.93258476       0.05900551    -609.08721095       0.70633988      -0.67270129      -0.37595311
H        7.93074608      11.36544991      10.49202347       0.05633937    -609.12902562      -0.78124965      -1.29461200      -1.06801269
H        0.08251292       7.80891275       1.73232687       0.03122441    -609.21526427       0.44295580       0.84721007       0.00756682
H        7.78710365       0.93221039       2.70315647       0.03995893    -609.17357864      -1.11061164      -0.33344339      -0.60211647
H        1.72662854       7.96242285       2.59904361       0.03550745    -609.20131602      -1.30116714      -0.50794990       0.02767037
H        6.57990646       0.94527882       3.87749863       0.05018904    -609.18165372      -0.20567399       0.46707168       2.80202907
H       12.45463467       8.17819118       3.46052098       0.03562102    -609.22585780      -0.52149764       0.41911783       0.93187634
H        5.92972517       1.48840702       2.43189573       0.05955688    -609.12850737       1.50250301      -1.79160400      -0.13578527
H       12.20358467       7.02720356       9.17244053       0.07155207    -609.11022904     -10.93648707      10.04129925      -1.38138032
H        5.50130033       0.40982834      10.15588951       0.00711919    -609.44746455       0.51845248      -0.24500715      -0.21935116
H        0.81380665       6.40423870      10.12521172       0.02391686    -609.28123857       1.38297034       0.57466662       4.09445972
H        6.86467981       0.87425685       9.39646339       0.01463227    -609.42146887       0.16876783      -0.54042804      -0.24529723
H        1.55274427       6.76828718       8.72818184       0.04063858    -609.08785539      -2.45226967       0.04726327       0.22513656
H        5.49638033       0.18347757       8.47782421       0.05003686    -609.25517942       2.01665862      -0.46222584       1.98084029
H       12.74504375       5.71824312       3.72502089       0.01213537    -609.39341596      -0.42781447       0.66115076       0.28034233
H        5.93241405      11.35420132       3.31652808       0.00846908    -609.41574718      -0.95412329      -0.29336702       0.12913406
H        1.28298080       5.64393234       2.33834362       0.01319725    -609.36822501      -0.96755038       0.62022450       0.14328932
H        7.52226877      11.15287876       3.22684479       0.00109899    -609.43477748       2.19252050      -1.87947637       1.18052311
H       11.91726112       6.05418015       2.27447772       0.00890061    -609.41963493      -0.78636251      -1.21768665      -0.12342861
H        6.72427225      11.24849701       1.83026719       0.00832308    -609.39814689      -0.26153856      -0.28129141      -0.59573730
H       -0.09746110       0.69861370      10.31007671       0.06081247    -609.07508536      -0.85112491      -2.73120411      -1.54114943
H        8.21739674       7.05958700       9.67261219       0.05107185    -609.23956317      -1.49480099      -2.13508427      -1.38414478
H        8.09598064       5.22043324       9.43354034       0.02741760    -609.32679189      -0.31893531       1.67914255      -0.35048044
H       -0.06779935      11.20497036       9.91327477       0.01237500    -609.30093570       0.09588128      -1.49952767       1.68331963
H        0.21507698      -0.24820904       8.77963924       0.02227887    -609.20855139      -0.94665040       0.80478094       0.20463371
H        7.61054468       6.26164484       8.24795341       0.02270459    -609.35433658      -0.34385477       0.51789468      -2.92324863
H        5.41529799       6.81780481       9.76826382       0.07543312    -609.08169200       2.29189005      -1.40358809      -0.49542222
H       10.24756050       1.14642191       8.83710575       0.03185789    -609.14936522       1.02438116       1.25445001      -1.18560240
H        6.50929213       5.98543549      10.98974609       0.06011819    -609.12765811      -0.10033647       0.32544209      -1.42039502
H       10.15710258      12.46337223       9.90743065       0.07728568    -609.01355518      -1.63862363       0.09175696       4.87350484
H        5.83695698       4.94376183       9.78586578       0.07083406    -609.12143378       0.97345217       1.82448886      -0.75039233
H       10.22680569      11.78447056       8.70448494       0.06495311    -609.02428185       1.02833660      -0.95131587      -1.71156955
H        7.65938425       6.23758411       2.29756665       0.06636212    -609.12334549      -0.70099586      -2.31219234       0.71726449
H        0.30540949       1.22409856       2.69353437       0.03806396    -609.20057174       0.53101384      -0.74862222       0.21477812
H        7.25341463       4.37470484       2.58598161       0.03065008    -609.10829187       0.41823805      -0.69688336      -0.10018768
H        1.40724075      11.96384144       1.88817668       0.05123070    -609.16050007      -0.18190572       1.10827891       1.19642892
H        7.72659445       5.59794474       3.91586113       0.05218272    -609.13191347       1.04678171      -0.78353760       0.65220547
H        1.17832279      -0.16038229       3.75140166       0.05779742    -609.12759182      -1.20788582       0.94867456      -1.50422381
H       12.13811874      10.76855469       3.29943752       0.01314842    -609.35961153      -0.61374887       0.16127913       0.99462694
H        5.69752455       5.58765268       4.39103413       0.01157744    -609.44533900      -0.23178495      -0.61135190      -1.60402094
H       11.67911625      11.37491608       1.95177627       0.00838997    -609.42926283       0.08736978       0.19011935      -0.68324403
H        5.08651114       5.28911686       2.66000962       0.02710103    -609.33435519       1.38777415       0.43426203       1.62687963
H        5.68675709       6.79354620       3.22150493       0.02118551    -609.38395833       0.32526791      -1.43978862      -0.09649032
H       10.73790455      -0.15127894       3.19778848       0.01133144    -609.37759949      -1.63181584       1.08192987       1.63034269
96
Lattice="12.299111366271973 0.0 0.0 0.397482693195343 12.292691230773926 0.0 0.0 0.0 12.580405235290527" Properties=species:S:1:pos:R:3:initial_charges:R:1:energies:R:1:forces:R:3 original_dataset_index=291 energy=-58453.45052783938 pbc="F F F"
Pb       9.89576530       9.46833897      12.10829163      -0.15533073    -607.50680516       0.19730214       0.17696022       0.99040616
Pb       2.56578302       3.06232667      12.23012066      -0.12535012    -607.26212876       0.18352534      -0.09289602       0.04695867
Pb       3.52484918       8.62290668      12.57822418      -0.12824382    -607.33040233      -0.35982631       0.60729513      -0.06063267
Pb       8.64090443       3.70597291      12.66953659      -0.09924869    -606.67900936       0.53635401      -0.24054536       0.19754093
Pb       9.85975647       8.65931892       6.31141329      -0.12983552    -607.19398341       0.22004645       0.77528639      -0.52007076
Pb       2.92031193       3.39700985       6.31157780      -0.14472505    -607.43083607      -0.10565428      -0.03438692      -0.40541634
Pb       9.32882214       2.78729320       6.71167326      -0.14005050    -607.43749983       0.00645151      -0.54182526      -0.50411261
Pb       3.37636518       9.34071445       6.05605173      -0.15089813    -607.10525395      -0.61731232       0.91182588       0.63863915
I        9.83687592       8.63475323       9.28893852       0.11789334    -608.52276023       0.01488066      -0.29052168      -0.64273686
I        3.66351080       3.33274722       9.24590492       0.12202301    -608.61147993       0.17675711       0.23921982       0.66983125
I        9.59663010       2.44806504       3.68834686       0.13823707    -608.42765558      -0.34797261       0.56038258      -0.62962144
I        4.33282852       9.63513851       3.30800629       0.13140371    -608.39378238      -0.37173540      -0.72246611      -0.65089417
I        2.86944532       3.03862023       3.03152919       0.14260244    -608.55139988      -0.56054294       0.00290504      -0.01649625
I        9.55953789       9.49152565       2.75273538       0.14829794    -608.46839830      -0.55459140      -0.06123413       0.29145719
I        3.64338946       9.13390255       9.54437351       0.14364833    -608.54416414       0.11199869       0.00310910       0.18931151
I        9.18951797       3.29878759       9.75629616       0.13230231    -608.46859075      -0.11126738       0.26982565       0.51439399
I       -0.68871945       1.90356541      13.06651783       0.10675433    -608.30002389      -1.16101604       0.55796912      -0.34145287
I        6.74016953       8.89988327      12.36214447       0.14873627    -608.43403242      -0.29002866      -0.02794838       0.29063851
I       10.14851379       6.44452190       0.16978556       0.12621532    -608.36149967      -0.18614846      -0.60553117      -0.86426559
I        4.35932779      12.39727592       0.00530160       0.13657461    -608.40733025       0.34734445      -0.06809270      -0.60242842
I       12.77160931       9.91436100       6.48926926       0.13262239    -608.53918553      -0.48763171      -0.16031670       0.03802346
I        6.07186317       2.96660042       5.91581726       0.14015773    -608.37402354       0.72385563       0.80772359       0.40980182
I        3.30968451       6.53933764       5.84031773       0.13034226    -608.59478374      -0.03502886      -1.32743242      -0.29151299
I        8.98390675      -0.43913868       5.99412537       0.14867042    -608.36592199      -0.24651221      -0.01765214       0.73556355
I       12.85823727      10.11198425       0.19424346       0.14914104    -608.48501440       0.32409269      -0.09319131       0.05208449
I        5.46381235       3.90092564       0.50274611       0.12978907    -608.27035600      -0.07276125      -0.29345673      -0.27334205
I        1.72199690       6.20980501      12.15021515       0.13536161    -608.54406078       0.19680833      -0.46110791       0.28979834
I        8.20074272       0.05973809      12.44375706       0.11620139    -608.45568643       0.58116468       0.85791243       0.47403881
I        0.22052833       2.09765053       6.39477396       0.13821329    -608.39387688      -0.52900444       0.58344466       1.14101124
I        6.44156218       9.21410370       6.87902117       0.10055342    -608.42053909       0.96765400      -0.84925335       0.19270121
I       10.12633228       5.68425465       6.04316998       0.12202800    -608.50576871      -0.24377554      -0.07329881      -0.08516605
I        4.17217827      12.53781128       6.34991264       0.13777940    -608.37088350      -0.14588317      -0.66821381      -0.03740084
N        6.32266712       6.06981134       4.14505005      -0.08393533    -609.62495212      -1.11838986       0.19355263      -1.19815647
N       11.81340885      11.79680634       3.68764591      -0.14433731    -609.76272192      -0.01367119       0.93290670       1.11345000
N        1.37875187       6.46191454       8.70058060      -0.05481057    -609.84985664      -0.30805624      -0.66147372      -0.68970520
N        5.23220110       0.21260226       9.45592594      -0.13584223    -609.82327739       1.47763010       2.73344707       0.99989092
N        6.98834324       6.62714100       9.90454865      -0.09536637    -609.50917703       0.15637916       3.43090448      -4.70056696
N        0.65717548       0.22238429       9.44065952      -0.05625614    -609.76727769       1.02417628      -0.58363211       0.98614296
N       12.02092743       4.77220726       2.58355021      -0.16306420    -609.78483363       0.25194478      -1.50563265      -0.66518098
N        6.33916855      12.01972389       2.57413340      -0.13155127    -609.62462551       3.02830650      -3.55102458      -2.76298546
C        6.30446100       6.11284447      10.77266026      -0.06750770    -609.93289197      -1.52830057      -2.47474332       3.88057734
C       11.90650558      12.17967892       9.50318623      -0.11039290    -609.95142564       1.93836995       0.94478343      -1.40797214
C        0.14657182       6.03046131       3.16892743      -0.11414521    -610.07681120       2.75989271      -0.00960709       0.90810937
C        6.45783377       0.66944802       3.52982354      -0.11944044    -609.99739599       1.34284699       2.40303425      -3.02405944
C        5.91323423       4.96221590       3.60410619      -0.06214047    -609.70294005       4.85021653       0.70285486      -1.96588952
C        0.23432727       0.48505840       3.70018625      -0.12464608    -610.03640833       1.17895377      -1.09909671       0.33277298
C       12.48122025       5.63000536       8.93211746      -0.10408773    -609.85959512       1.02604109      -1.17041588       0.67377096
C        7.12320805      12.52350330       9.19864464      -0.10989592    -610.03587758      -0.44678252       0.35445327       0.03313558
H       12.14795589       5.69639826      10.02480412       0.07492787    -608.95879872      -0.04054927      -0.17399424      -1.17182148
H        7.22472572      12.84444714       8.13933182       0.03630695    -609.24168579       0.28657201      -0.54781862       0.43192693
H       11.60857391       5.74299002       8.24012184       0.06688662    -609.04816562       0.78901827       0.51647996       0.50885032
H        7.62288857      13.28485966       9.84396362       0.03747229    -609.19227044      -0.57445856      -0.38936753      -0.36822265
H        0.51964289       4.52785444       8.73804951       0.07939891    -608.94178528      -0.53550706       1.60293324       0.47589862
H        7.52687550      11.53623390       9.45980930       0.04036348    -609.18874074       0.05182581       0.13040746      -0.47195642
H       -0.15599947       5.98479271       4.24573231       0.04535551    -609.17072887      -0.47350299       0.69681939      -0.93498044
H        7.39236689       0.39086467       3.99443388       0.05556933    -609.13239427       0.06304296      -0.45231423       0.46598458
H       -0.06167572       6.89945602       2.52572370       0.03921190    -609.18069073      -0.01457081      -0.09455738       0.58864135
H        5.80849838       1.24222422       4.17966127       0.06876879    -609.10857930      -0.65264158      -0.71712337       0.06256734
H       13.56030464       5.81568623       3.32607508       0.05683536    -609.10197420      -0.91321716       1.22607282      -0.64010460
H        6.83036041       1.46403015       2.72841573       0.08441864    -609.03037979      -0.46055815      -0.73096928       1.92743981
H        7.07272005      10.72575474      15.12983131       0.17968562    -608.52472950      -0.37074659       3.05170775       0.02841932
H        4.95845556      -0.01438493      10.44028854      -0.00031742    -609.51075421       0.13392398       0.25254615       0.21355806
H        2.28030682       6.00485134       8.84626007       0.05003333    -609.37007895      -0.54645138       0.34918315       0.05593617
H        4.88136435       1.21017897       9.22775745       0.01272057    -609.44233295      -0.02077954      -1.27824617       0.46443300
H        1.43770504       7.48072767       8.65045357       0.05624538    -609.28959333      -0.51262122      -0.59166540       0.27010219
H        4.74104357      -0.41200775       8.88380814       0.00767787    -609.49209584      -0.94284918      -1.35719980      -1.50320960
H       11.98307037       4.58961725       1.55878532       0.01231244    -609.31438451       0.09313353       1.05556624       0.14014192
H        5.55239105      10.59658623       6.64959478       0.17747197    -608.89231760      -0.16614994       1.09273437      -0.08923591
H       -1.23837733       4.54898214       2.90366244      -0.00374757    -609.32052458       0.33436184      -0.84387413       0.30250251
H        6.53829670      12.37257290       1.50640023       0.05065836    -609.15427211      -1.06809450      -1.47029353       2.75628414
H       12.82494545       4.13016653       2.84595942       0.00805504    -609.32571780      -1.22279215      -0.55974230       0.29327218
H        5.64105654      11.26034355       2.70864987       0.02203380    -609.17704052      -1.12725396       1.40683229       0.11170658
H       -2.40234470       0.98838168      13.15289307       0.16034429    -608.78262190      -0.08893055      -0.22561430      -0.50936925
H        8.00158501       6.52979708       9.76312923       0.08077786    -609.03233124      -0.15522867      -0.01294015      -0.06529169
H       10.10336113       6.22024441      15.44713497       0.05302396    -608.93453196      -0.87233049      -0.24716329       0.28937889
H        1.50487447      12.26742268      10.34257126       0.04155514    -609.36670752      -0.03716614      -0.06668895      -0.85642408
H        1.24081469      -0.13648131       8.63010120       0.05377861    -609.33134617      -1.26015320       0.19443336       1.23916162
H        6.41618776       7.35610485       9.37526035       0.06798977    -609.04759985       1.51675734      -0.52106498       0.03581144
H        6.85592699       5.35330057      11.37178135       0.05652818    -609.11484486      -1.14264921       0.60505602      -0.04458127
H       11.21135235      -1.14417648       9.55003166       0.06297024    -609.03580984       0.01663978      -0.88124302       0.29657961
H       26.27369881       0.37442511       1.13315177       0.03783586    -608.80538347       2.85406894      -2.00204803       3.52500343
H       11.62620163      12.56115055       8.53844452       0.04961988    -609.05211823      -1.18075454       0.17213229      -0.59551067
H        5.22068882       6.39878082      10.90195084       0.07585417    -609.10663279       1.09981856      -0.63490636      -0.10670430
H       11.46779060      12.77787018      10.27779293       0.05046359    -609.10765443      -0.39185749       0.23855811       0.56194868
H        9.46295929       5.81665134       2.75830960       0.05377427    -608.99848740       0.38354421       0.18349067       0.51465886
H        0.97599924       0.07997201       4.45362997       0.04660862    -609.15244199      -0.85020115       0.55472684      -0.36323547
H        5.08112526       4.54013252       3.87825370       0.08138599    -609.02825058      -5.01945262      -1.69624441       1.54201097
H        0.28761783      13.79000759       4.01325941       0.03607027    -609.12741141       0.33942725      -0.85972022      -0.84766955
H        6.30839205       4.47401667       2.66546655       0.08283716    -609.04998372       0.62394075       0.45157351       1.41309628
H        0.78394687       0.33470184       2.77417064       0.04587405    -609.05741339      -0.29255736       0.75979136      -0.36935318
H       10.91413403      12.04782677       3.25331664       0.00984398    -609.41170550       0.32628046       0.33577271      -0.58112895
H        7.10786057       6.53563261       3.75311089       0.07325741    -609.02479184       0.98547893       0.53570751      -0.30271215
H       11.52436447      11.63961506       4.66777754       0.00028480    -609.44831347      -0.14616925      -0.13997584       0.25338385
H       13.99821377      12.92770672       0.66951060       0.02348166    -608.84495916      -2.81101658       1.67536943      -3.11033977
H        5.54295969       6.67953587       4.41518974       0.06267903    -608.92790472       0.11987806       0.16434956       1.12844184
H       11.73979950      -1.37622082       3.35240650       0.00077768    -609.51005776       0.09239809      -1.12226722      -0.71527518
96
Lattice="12.299111366271973 0.0 0.0 0.397482693195343 12.292691230773926 0.0 0.0 0.0 12.580405235290527" Properties=species:S:1:pos:R:3:initial_charges:R:1:energies:R:1:forces:R:3 original_dataset_index=37 energy=-58463.344934393914 pbc="F F F"
Pb       9.73163319       9.10610867      12.43366146      -0.13909277    -607.10621101      -0.75282294       1.37593896       0.38962757
Pb       2.92247963       2.78097630      12.23498917      -0.15864173    -607.31171761      -0.21961711       1.03199185       2.16233525
Pb       3.74280882       8.90732670      12.65105438      -0.13152255    -607.23877020      -0.99957802       0.31523660      -0.23684311
Pb       9.19641590       3.37181973      12.75904179      -0.16513662    -607.29189669      -0.29990008      -0.61666160      -0.16872625
Pb       9.68118858       9.11199379       6.30506659      -0.14009500    -607.23000020      -1.14588098      -0.59145620      -0.34178407
Pb       3.09507942       3.13936019       6.27381325      -0.14900692    -607.59808103      -0.16968421      -0.17898750      -0.35928749
Pb       9.31723690       2.78402543       6.27694511      -0.12002257    -607.06119563       0.56881847       1.09562284      -0.22982468
Pb       3.47162461       9.27278900       6.12583256      -0.13238001    -607.17171242      -0.65751983       0.22445992       1.09041953
I       10.12999725       8.59906769       9.33859444       0.10876788    -608.50721149       0.30838477       0.03271261       0.22038498
I        3.40405536       2.64416695       9.57603550       0.12775357    -608.58681355       0.40041582      -0.03866908      -2.39388705
I        9.48636055       2.91716027       3.00857687       0.13411964    -608.51486434       0.93205832      -0.51002723       1.84758586
I        4.12669182       8.92650795       3.34837246       0.11993980    -608.66560138       0.21655373       0.14418762      -0.95647183
I        2.69180608       3.77481604       2.95524096       0.15087479    -608.41793625       0.32691990      -0.62122973       0.75049541
I        9.62269974       9.76935959       3.22611070       0.13237874    -608.44473245      -0.88173790      -0.84102078      -0.33410198
I        2.69018698       9.60461235       9.80837917       0.15462174    -608.50110216       0.35336682      -0.10274947      -0.56320870
I        9.16341782       3.09620929       9.87683487       0.13325712    -608.43672057      -0.50607580       0.75137276      -1.68480710
I       -0.08952890       2.26594710      12.52916050       0.14279300    -608.54660076       0.04244871      -0.19147513      -0.44930862
I        6.55529261       8.43787956      12.30799389       0.12754521    -608.50163672       0.29590599       0.07726771       0.28986410
I        9.91036415       6.28172827      -0.05560500       0.11547997    -608.53103501       0.70440367      -0.54033617       0.22746457
I        4.15776062      12.36422348       0.18838976       0.14391768    -608.63411669       0.41727497      -1.23294518       0.24834286
I       12.28545856      10.05427456       6.02293730       0.13497719    -608.53683162       1.38068482       0.39669748       0.15332127
I        6.14879894       4.09791279       6.07148886       0.14224423    -608.56152161       0.53407001      -0.19571780       0.62436828
I        2.55657291       6.13092136       6.37122250       0.14113903    -608.54121476      -0.08849506       0.98349861      -0.12473165
I        8.08499813       0.27524686       6.56893301       0.12970400    -608.49106919      -0.34603677      -1.20422713      -0.22294004
I       12.39706326      10.18900204      -0.17151870       0.13600981    -608.52679822       0.75480577       0.03802770       0.25178059
I        6.21951532       3.88582110       0.22347400       0.15586492    -608.50399492      -0.62558946      -0.18110431      -0.11264422
I        2.38673306       6.03852987      12.65049839       0.13824873    -608.48247344       0.14573273       0.57919361      -0.79340550
I        8.35597706       0.28378525      12.44833374       0.15544155    -608.54589648       0.12865575      -0.30981459       0.31028228
I        0.29480749       1.74006581       6.68350315       0.15505032    -608.56076139      -0.45865135       0.18784804      -0.17231618
I        6.19702816       8.43424511       6.54573727       0.14190410    -608.49662083       0.78913568      -0.15676673       0.35703318
I       10.44741535       6.02160120       6.13985062       0.14844184    -608.58271466      -0.32219258       0.48864980      -0.47608550
I        4.66141939      12.63364220       6.21739244       0.14764795    -608.49410544      -0.03820227      -0.91918414      -0.17819388
N        5.84281921       5.75358295       3.27511740      -0.14123550    -609.73123820       0.51572373      -0.21022687       3.78265366
N       11.94381046      11.68222427       2.87261033      -0.14664830    -609.76099397      -1.66213755       1.91268926      -0.55970724
N        0.62758762       6.51740694       9.19870853      -0.11463115    -609.70549226      -0.67743600       1.26217649       4.24966765
N        6.13451052       0.08821889       9.43277359      -0.14201124    -609.67683365       2.90656950       1.09576524       2.27077174
N        7.62935829       6.18906975       9.18792439      -0.14958982    -609.63066099      -4.35169734      -5.24144327      -4.51276085
N       -0.51374692      -0.18028985       9.58498859      -0.14294937    -609.78674586       0.14430805       0.34655968       1.33927612
N       12.76085854       6.21996641       2.79726171      -0.14342269    -609.76348038      -1.75292084      -0.48082484       0.71344043
N        6.79264927      11.58465099       2.75213909      -0.13533261    -609.81172740      -1.53468656      -3.36647281       0.31064749
C        6.34228754       6.01582289       9.90209293      -0.11946626    -609.95126649       0.92147864      -3.88872938      -0.22878150
C       10.82244301      12.46387863       9.18792248      -0.12557483    -610.00510646      -3.61848091       0.04430883       1.35534783
C        0.62273240       7.69536972       2.63579154      -0.11737872    -610.04756639      -1.11603119       0.34529209       0.97558043
C        6.68021584       0.71268588       2.91314507      -0.10855284    -610.08766893      -0.61149551       2.07673393       0.04258595
C        7.25378418       5.37733269       3.05961609      -0.11837821    -609.98552250       0.29535235       0.99988862      -1.92118392
C        0.53165573       0.14244367       2.81064153      -0.11140207    -610.03453393      -1.05711808      -0.79477138       0.62682092
C       12.36485195       5.15052986       8.91729164      -0.11792138    -610.03002443      -0.28021127       1.25741847       1.43826764
C        7.13147783      11.05692768       9.75484276      -0.12151737    -610.01279888      -0.90140055       1.46633815       2.12674133
H       11.38830185       5.26090860       8.46765709       0.04640933    -609.20751141      -0.17566670       0.01253603      -0.10518152
H        6.33863401      10.51272202      10.26032352       0.03632510    -609.16669358       0.07380787      -0.49666306      -0.13523826
H       12.95756721       4.53327560       8.30935860       0.04609757    -609.22281136       1.05484142      -0.59465892      -0.93868791
H        7.45676661      10.64673805       8.87300873       0.03686992    -609.18301283       0.78752499      -1.31461355      -2.05442930
H       -0.04620121       4.69122839       9.88816357       0.05251934    -609.20465763      -0.16284973      -0.43312583       0.31077810
H        7.93549490      11.29469681      10.46961021       0.03211151    -609.20539913      -0.10504730      -0.45801455      -0.19760781
H        0.08206492       8.02832317       1.72965789       0.03014669    -609.22272330       0.18533133      -0.29992325       0.43176984
H        7.75259018       0.85917515       2.74177003       0.03998360    -609.16146318      -0.33111440       0.12219586      -0.32234994
H        1.66702187       7.90726662       2.50515437       0.02694692    -609.23677143       0.49295907       0.17513261       0.17184180
H        6.51362753       0.99844813       3.99657202       0.04879355    -609.21044647      -0.13449513      -0.34624719      -1.06838058
H       12.49633217       8.19780922       3.53724337       0.03574018    -609.22980906       0.39115297      -0.18726094      -0.58445421
H        6.03077126       1.42029023       2.20568943       0.05751409    -609.17151082       1.29821449      -1.68692347       1.33387204
H       11.81687641       7.34898090       9.35166645       0.11461660    -608.96915149       2.75983110      -1.35249502      -0.76554548
H        5.51343489       0.35606837      10.17536163      -0.00023901    -609.46450170      -0.42324820       0.50048695       1.24752361
H        1.04722357       6.53524685      10.27856922       0.04850182    -609.24818797      -1.42013752      -0.20151590      -2.48026169
H        6.91180611       0.83677888       9.37773132       0.01501031    -609.36081093      -1.45464806      -0.91847505      -0.36199033
H        1.53831089       6.81224155       8.77390862       0.03266304    -609.33442575      -1.11421096       0.05002414      -0.90950916
H        5.52907228       0.04553230       8.68051243       0.00362052    -609.41514702      -1.35067006       0.17344321      -3.06764031
H       12.75029755       5.76426554       3.78413367       0.02238929    -609.34872864      -0.31944964       1.33162503      -1.36990289
H        5.92297792      11.27908516       3.32875156       0.02110600    -609.38863521       1.21705924       0.58634692      -1.12267651
H        1.27931929       5.77526283       2.37554336       0.00024730    -609.41120424       0.29786173      -0.66246915      -0.64378025
H        7.57823133      10.89584255       3.11875987       0.01809677    -609.39410133      -0.74815011       1.37544963      -0.41327201
H       11.87705421       5.97848988       2.25172997       0.01517551    -609.38880882       1.13914954      -0.32394235       0.84406780
H        6.63655472      11.19134521       1.75301707       0.02476159    -609.38017967       0.13611741       1.26399604       1.31783276
H       -0.20656198       0.68025142      10.25735092       0.03326568    -609.22654689      -0.00799205      -2.42631121      -0.91729845
H        8.09734726       6.86682892       9.55333805       0.02292028    -609.33540004       3.89844239       5.94788306       2.30152902
H        8.15199471       5.36207104       9.37262821       0.00612153    -609.39484375       1.21758951      -1.75302554       0.77441491
H       -0.15177862      11.12471676       9.98943806       0.02361709    -609.27648190       0.14764304       1.42784562       0.84354766
H        0.18798102      -0.39232084       8.85345078       0.02286844    -609.27562485      -0.28898250       1.05837352      -0.42935030
H        7.65174580       6.13284254       8.10260105       0.02656066    -609.25534634      -0.62255102       0.88300583       1.59702200
H        5.64873934       6.71555567       9.68760681       0.05159121    -609.13009804      -2.17829888       2.57513963      -1.17528468
H       10.26156998       1.13937461       8.71904945       0.03634799    -609.14473991       1.02638249      -0.14871440      -0.26375487
H        6.53850317       6.06093693      10.95484734       0.03219920    -609.18588872       0.27687133      -0.14221679       0.54913711
H        9.97824860      12.58185577      10.12666607       0.08920949    -609.03536969       2.78545397      -0.57822432      -1.52395367
H        5.92289448       4.98201132       9.68136120       0.04321230    -609.20914611       0.50543110       1.15751528       0.09473835
H       10.28357315      11.72881031       8.59202099       0.05095865    -609.09329000       0.72354307      -0.37946856      -0.34178657
H        7.67774296       6.00483847       2.18582797       0.04773469    -609.17654858      -0.48958811      -0.84432321       1.41178674
H        0.28860670       1.15209460       2.79906797       0.03267456    -609.23233830      -0.33399430       2.02913824      -0.18771001
H        7.27268934       4.32036114       2.72441912       0.03776670    -609.11308879      -0.08581719       0.67685878       0.49949773
H        1.44512641      12.17293262       1.93467951       0.03082974    -609.24705338       0.82121391      -0.46499185      -1.20940640
H        7.78639793       5.53708172       4.00111628       0.04023511    -609.17417609       0.13925868       0.02986736      -0.15183555
H        1.09956765      -0.03331928       3.68507791       0.03912398    -609.20988988       0.65903898      -0.44244035       1.04710413
H       12.03789997      10.74965382       3.27255321       0.00628446    -609.33960880      -0.24162668       0.02459569       0.68951282
H        5.60650682       5.51471043       4.33529282       0.01468508    -609.40774830       0.32457997      -0.51234439      -1.53620943
H       11.58321190      11.48919487       1.91093194       0.00548622    -609.40157081       0.45168500       0.05940702      -0.00236833
H        5.13154507       5.37519884       2.72523093       0.01394551    -609.45104881      -1.39109671      -1.79789947      -1.68484695
H        5.55895281       6.69621325       3.33572412       0.02093419    -609.38162488       0.42175812       2.53553589      -0.43902126
H       10.68065834      -0.03744483       3.27137756       0.02386391    -609.30403439       2.13942468      -1.34514967      -0.19634849
96
Lattice="12.299111366271973 0.0 0.0 0.397482693195343 12.292691230773926 0.0 0.0 0.0 12.580405235290527" Properties=species:S:1:pos:R:3:initial_charges:R:1:energies:R:1:forces:R:3 original_dataset_index=295 energy=-58453.391728794595 pbc="F F F"
Pb       9.88323402       9.44752502      12.13314152      -0.15463822    -607.47087241       0.08806203       0.35493481       0.92775993
Pb       2.58829927       3.08150816      12.22833252      -0.12312160    -607.22151878       0.01670101      -0.02762651       0.15879698
Pb       3.51274848       8.61352062      12.58299065      -0.12931128    -607.35903810      -0.20366381       0.52381096      -0.19243400
Pb       8.65206242       3.70925808      12.68014240      -0.10253310    -606.78535286       0.31152947      -0.24084241      -0.02513942
Pb       9.88160419       8.66295528       6.30810976      -0.13420522    -607.26939211       0.00430610       0.75071718      -0.54327950
Pb       2.92124796       3.37712646       6.32403088      -0.14539191    -607.41066928      -0.07950728       0.15239655      -0.49038559
Pb       9.33057499       2.78894711       6.71036196      -0.14144449    -607.46582730      -0.01338222      -0.51178882      -0.47669511
Pb       3.36210871       9.35006142       6.07741833      -0.15434739    -606.77343094      -1.15337765       0.16294665       0.55597346
I        9.81973362       8.63253689       9.28850937       0.11729927    -608.55957263       0.00990416      -0.23077917      -0.51590544
I        3.66327596       3.33803582       9.26504993       0.11952896    -608.62200039       0.19383735       0.14112810       0.60835736
I        9.60750961       2.46618819       3.65037394       0.13343610    -608.41719019      -0.56516167       0.54735717      -0.50323877
I        4.34190512       9.61819458       3.29974818       0.12889183    -608.45303027      -0.43654265      -0.47389935      -0.71048204
I        2.90170026       3.01694417       3.01613021       0.14895037    -608.52377498      -0.53166540      -0.22340854       0.01393742
I        9.54205990       9.50194645       2.75901031       0.15513071    -608.44002307      -0.16652179      -0.18540889       0.29017524
I        3.64755225       9.11994743       9.51698399       0.14500855    -608.52006994      -0.00001492       0.04554176       0.28027655
I        9.18055725       3.29941106       9.72854233       0.13546221    -608.49591864      -0.07816817       0.26326631       0.62490031
I       -0.73030114       1.90502656      13.05774021       0.11022570    -608.46726260       0.15678573       0.16021507      -0.38746591
I        6.73567772       8.92482662      12.35490322       0.15317854    -608.38300045      -0.33745490      -0.03554884       0.25824869
I       10.13045311       6.46262598       0.17262414       0.12044802    -608.46836925      -0.02803503      -0.85213912      -0.53411767
I        4.38304329      12.41698647      -0.01415363       0.10113958    -607.84210529       2.50634552       0.01417851      -1.85268433
I       12.78719807       9.92186832       6.52968454       0.13600470    -608.57077203      -0.58315412      -0.14993676       0.11294537
I        6.04766464       2.96619844       5.91690254       0.14305799    -608.39564969       0.74177418       0.54630287       0.40621554
I        3.32394290       6.52817583       5.83429480       0.13292539    -608.58208890      -0.04169426      -1.32333572      -0.27954192
I        8.99467659      -0.43018314       6.00555515       0.14770472    -608.37543880      -0.21367457       0.03065979       0.68342932
I       12.83896160      10.10085201       0.17318372       0.14629292    -608.51280180       0.39724468       0.02407618       0.08762984
I        5.44750214       3.91489649       0.50451630       0.12995210    -608.28375135       0.17539770      -0.26085415      -0.13954896
I        1.74980938       6.21323824      12.12640095       0.13490093    -608.54221624       0.13279186      -0.48155354       0.28192076
I        8.22265816       0.06225880      12.41152477       0.12349079    -608.43363576       0.33067468       0.80582609       0.15045667
I        0.21537711       2.10895228       6.41870832       0.13890946    -608.39431911      -0.56844829       0.65501943       1.09224577
I        6.44385624       9.24003983       6.86734629       0.11600228    -608.42626737       0.42841283       0.21566258      -0.22806903
I       10.10053921       5.68945837       6.05540133       0.12368616    -608.53481941      -0.15584054      -0.11440439      -0.05118152
I        4.15680122      12.50372791       6.36025381       0.12230451    -608.31408299      -0.09190556      -0.56486127      -0.11228026
N        6.30719709       6.03301477       4.11307383      -0.09159592    -609.60000848      -0.32188290       1.04649253      -0.61985615
N       11.84974861      11.70649719       3.72680569      -0.14035033    -609.73947320       0.19485386       0.81647035      -2.55444744
N        1.34950519       6.41384172       8.62596226      -0.05910130    -609.81603445       0.45414909       0.40081444      -0.66351970
N        5.27496624       0.19890907       9.47971153      -0.14241113    -609.80336595      -0.36661375       2.03363875      -1.37543071
N        6.99255610       6.71110868       9.87605190      -0.07208172    -609.59630203      -1.24903230       0.92514381      -0.12207391
N        0.63141626       0.26160145       9.45416069      -0.06145953    -609.83077649       2.64279268      -0.10520526      -0.36816155
N       11.99393368       4.69086313       2.61433911      -0.15219985    -609.79635471      -0.93373399       0.97129446      -2.64473355
N        6.48789454      11.82557106       2.53992724      -0.16387299    -609.41158570      -6.11559412      17.01835978      -3.50694248
C        6.28370714       6.08567142      10.80753708      -0.03899177    -609.82547995      -0.33277642       2.33112550      -1.25379072
C       11.95714378      12.16921616       9.46065712      -0.11042217    -609.91714863      -1.58447023      -1.36257307       0.80854947
C        0.15685342       5.94274664       3.18709564      -0.10861224    -610.07773840       0.87414707       1.21364792       0.86260593
C        6.49540091       0.70127064       3.50138855      -0.12767671    -609.79753712       0.11978265      -3.54721768       1.82453020
C        5.90190077       4.99047947       3.52990270      -0.06237848    -609.83583564      -1.85027250      -3.70146585       1.03566439
C        0.18630198       0.48754478       3.74221969      -0.12231502    -610.08859640       0.17315992       0.14457349       0.60582393
C       12.54621601       5.61645460       8.97944355      -0.11220016    -609.92526960      -2.26235193       1.02686899      -0.99272876
C        7.12684536      12.53895187       9.26234245      -0.11383253    -610.03359463      -0.29784920      -2.12847252      -0.90097944
H       12.10760784       5.72466612       9.95372200       0.07573146    -608.88431790       0.28008643      -0.10557794       1.55451005
H        7.28524590      12.46493721       8.18238068       0.03519298    -609.25909724       0.15147260       0.52121261      -0.05461639
H       11.58216381       5.85490751       8.43595791       0.06635067    -608.99787996       1.05509243       0.01638498      -0.36537673
H        7.56087208      13.37040997       9.72736168       0.02913460    -609.21487399       0.62537053       1.34723267       0.49066336
H        0.43738350       4.59541941       8.74738979       0.05501846    -609.03871791       0.21061978      -1.15505318       0.02661078
H        7.56925106      11.61906147       9.65760326       0.03850551    -609.18771400      -0.02977416       0.04471228       0.19235014
H       -0.23356883       5.87101507       4.21912909       0.03719386    -609.21704531       0.35090749       0.86741481      -0.22331201
H        7.20998383       0.11553772       4.09851170       0.06109860    -609.15055298       0.18241828       0.42779400       0.47516559
H       -0.26942039       6.82997370       2.59139991       0.04175833    -609.20460926       0.49697720      -1.26637964       0.94653752
H        5.66970587       0.87701470       4.24662113       0.05889216    -609.04234711       0.65793257       0.44171425      -1.30954994
H       13.57583332       5.97825813       3.22631693       0.04268451    -609.16889202      -0.86246056      -0.01347820      -0.22847785
H        7.15895510       1.46232593       3.11021996       0.05461719    -609.08140558      -0.70806081       0.40360024      -0.73091605
H        6.54589558      11.01908398      15.36171341       0.08659492    -608.95193028       2.65747797     -12.65048264       3.11327446
H        4.95944738      -0.04864432      10.42076778      -0.00394909    -609.50174008      -0.09215673      -0.24826577       0.89611098
H        2.24850845       6.02181435       8.81496716       0.04357645    -609.35413933       0.43346233       0.02876878       0.19922089
H        4.84538507       1.17928004       9.26231289       0.01397021    -609.41097318       0.46262392      -1.28713195       0.41700004
H        1.36885202       7.41777420       8.47402573       0.04765618    -609.30758480      -0.44541506      -0.33242888       0.32518968
H        4.86335993      -0.41229030       8.77742767       0.00476770    -609.46995043      -0.41778762      -0.41410386      -0.05564648
H       11.78816319       4.88714314       1.58502698       0.00116955    -609.38192680       0.06469722      -0.67507381       0.98012559
H        5.08317757      10.46789265       6.17019844       0.20307694    -608.80417486       1.24127597       0.63252775       0.59120193
H       -1.14888501       4.36339140       3.06723428       0.00353286    -609.39755001      -1.41572834       0.00903264       0.23171000
H        6.57349062      12.31121349       1.60462689       0.02643176    -609.09502666       0.47406427      -2.08566281       0.20509454
H       12.52356529       3.84854770       2.69475126       0.00777429    -609.36439660       1.90926659      -0.70155255       0.04251482
H        5.29363394      11.86278725       2.62123728       0.06806158    -608.96887222       3.01381034      -0.15726202      -0.46724690
H       -2.31334257       1.10561955      12.58283997       0.14275961    -608.90797103      -0.18601128      -0.38005598       0.06729305
H        8.03942299       6.87499571       9.97933483       0.07867911    -609.11097183      -1.19162146      -0.18310585      -0.00683213
H        9.42606831       6.62939978      15.37219524       0.08939838    -608.95479033      -0.34976619      -0.88343404       0.54916686
H        1.67108762      12.52673149      10.28185654       0.06086124    -609.32988565      -1.72923519      -0.13342933      -0.09755843
H        1.28560853      -0.12584946       8.76110172       0.05905442    -609.33720645      -0.97571431      -0.10434406      -0.37855723
H        6.49624777       7.48818541       9.22542667       0.09341612    -608.96942216       1.02367910      -2.36068281       1.29814072
H        6.69363594       5.79744911      11.77432251       0.07312934    -609.05128157       0.45327805      -0.33240074      -0.55933523
H       11.18264675      -1.19683731       9.80298519       0.08993111    -608.94509649       1.25111273       0.93939287      -0.98926800
H       26.61673546       0.24658379       1.35406470       0.07600066    -608.73601029      -2.07510244       1.16485522       4.09139020
H       11.34460163      12.40089130       8.51308155       0.06008606    -609.12812375       1.17772489      -0.06696649       1.14564577
H        5.15340996       6.05564213      10.74533272       0.08404195    -609.12174507       1.22349103       0.08950345      -0.21845397
H       11.55035114      12.68789196      10.31917381       0.06533016    -608.95070139      -0.68134504       0.80277954       0.05126627
H        9.31332588       5.89229536       3.04826236       0.07241685    -609.06366869       0.02732391       0.80320112       0.00895019
H        0.82535499       0.31811246       4.62859917       0.04003952    -609.13351450      -0.27716156      -0.09225500      -0.47618672
H        4.92685461       4.52126694       3.89311242       0.06668259    -609.06865219       0.84001238       0.92614188      -1.04263490
H        0.07435973      13.77378368       3.86544847       0.03471510    -609.15458778       0.64242936      -1.08630946      -0.46412288
H        6.48979807       4.32753277       2.86904311       0.07464989    -609.14268355       0.08536124       0.74467982       0.56225313
H        0.82291460       0.40315598       2.86495876       0.03711227    -609.09554741      -0.19705772       0.08808780      -0.32130979
H       11.05069542      11.90860271       3.06916094       0.00792094    -609.43497149       0.37272535       0.23469353       0.89111370
H        7.16199541       6.38218498       3.81874394       0.07025857    -609.09694541       2.41924431       1.22986459      -0.39797892
H       11.47733784      11.47632980       4.64028645      -0.00082278    -609.43881662      -0.40296593      -0.15731883       0.70341479
H       14.87308979      12.34367561       0.73915368      -0.00789153    -608.84955618      -0.89018325      -1.12128705      -2.26918673
H        5.67446470       6.67402983       4.56968164       0.07107114    -609.03085884      -0.59102576       0.15976368       0.73974340
H       11.83418560      -1.40045512       3.25746036       0.00400558    -609.47868726       0.34477144      -0.73046413       0.23557787
96
Lattice="12.299111366271973 0.0 0.0 0.397482693195343 12.292691230773926 0.0 0.0 0.0 12.580405235290527" Properties=species:S:1:pos:R:3:initial_charges:R:1:energies:R:1:forces:R:3 original_dataset_index=40 energy=-58462.15274162065 pbc="F F F"
Pb       9.74631310       9.10521317      12.42267323      -0.13690698    -607.02023546      -0.91865514       1.36809414       0.49614937
Pb       2.89673185       2.76054049      12.21698856      -0.15826617    -607.28644709      -0.25268931       1.11430445       2.09476948
Pb       3.77178979       8.88051414      12.65545464      -0.13094021    -607.20919979      -1.15619803       0.32034898      -0.28434381
Pb       9.18218994       3.39616823      12.77509594      -0.16468500    -607.26974148      -0.30448111      -0.65839718      -0.26412042
Pb       9.68814945       9.09877586       6.30401945      -0.13657330    -607.12001139      -1.36789622      -0.68271618      -0.41451423
Pb       3.08690119       3.14546061       6.26936531      -0.14747623    -607.57043217      -0.09301177      -0.12492239      -0.34537669
Pb       9.31865120       2.76511097       6.27403879      -0.11994486    -607.04717854       0.50992833       1.15368338      -0.22933431
Pb       3.47633553       9.28079319       6.11827230      -0.13083370    -607.10686017      -0.73622298       0.24111910       1.15583704
I       10.16450214       8.59553337       9.33133316       0.09835012    -608.43174038       0.27889380       0.09249654       0.25366721
I        3.40499592       2.65607929       9.56120396       0.12972432    -608.56708963       0.39018500       0.00341271      -2.31376951
I        9.46025562       2.92255712       3.01953983       0.13310786    -608.48160301       0.90875711      -0.46615987       1.85705636
I        4.14976406       8.92686558       3.35823512       0.11752705    -608.63400886       0.21508770       0.19646184      -1.02676050
I        2.67535710       3.78180408       2.94740295       0.14991443    -608.43859220       0.37656488      -0.58754655       0.75331593
I        9.64652157       9.76134205       3.23060656       0.13193022    -608.41676225      -0.90935811      -0.89159344      -0.30724191
I        2.67968869       9.61623287       9.83677483       0.15713581    -608.48331779       0.43869878      -0.14734247      -0.57752288
I        9.19238758       3.08216119       9.89591789       0.13887472    -608.43195935      -0.36167011       0.59667369      -1.63571596
I       -0.10716988       2.26953626      12.54088211       0.14230515    -608.54129349       0.04259427      -0.18788629      -0.41202083
I        6.56638861       8.44656754      12.30831051       0.12782578    -608.48912160       0.40146320       0.10421443       0.30289792
I        9.88238049       6.29450464      -0.08047007       0.11695802    -608.48453905       0.70052044      -0.55276310       0.21541158
I        4.14488363      12.35941315       0.18671207       0.13883670    -608.66248924       0.48942809      -1.27080868       0.26250498
I       12.27081013      10.05653095       6.02388620       0.12951484    -608.53397807       1.51164103       0.48938387       0.14176815
I        6.14653063       4.10952759       6.08440590       0.14514211    -608.57509536       0.44115405      -0.30837089       0.58991104
I        2.56935787       6.14130354       6.35658407       0.13879977    -608.54443596      -0.12951364       1.06626853      -0.12482982
I        8.05548763       0.28504935       6.57009983       0.12911746    -608.45714412      -0.32606281      -1.22198491      -0.23050979
I       12.38631630      10.19920254      -0.21060494       0.13522190    -608.48459822       0.88434645       0.07386382       0.46482605
I        6.20489788       3.87377691       0.21454273       0.15603647    -608.53555687      -0.61691552      -0.15986241       0.05847997
I        2.38539791       6.03329754      12.67242050       0.14102581    -608.42561777       0.20182575       0.53245828      -0.72144055
I        8.35734653       0.30409840      12.46205711       0.15613325    -608.51511650       0.18099214      -0.28776574       0.39264172
I        0.30485854       1.70027447       6.69491100       0.14963825    -608.58733126      -0.46341987       0.12935492      -0.16093145
I        6.17983246       8.44269466       6.55005407       0.14068508    -608.50028334       0.87316056      -0.17616776       0.39979739
I       10.45797634       6.01986694       6.14317226       0.14671081    -608.57676285      -0.31564210       0.54524520      -0.64535884
I        4.69133425      12.65801144       6.23118639       0.14284867    -608.49473971      -0.01770054      -1.00167372      -0.06471852
N        5.81112480       5.79634571       3.25501227      -0.13933575    -609.78917080      -1.34913004      -0.66753027      -0.33385075
N       11.92396641      11.69225597       2.82125330      -0.14930665    -609.80448007       2.10380077       0.71916030      -0.05146339
N        0.67965406       6.51185226       9.24615574      -0.10143213    -609.74305812      -4.04747293       1.28681419      -6.63563232
N        6.06703711       0.09807305       9.46759033      -0.12761089    -609.87008882       0.21018160      -2.00169069      -1.56966118
N        7.68826818       6.14310694       9.12330532      -0.13235831    -609.72115718       3.28927239       1.17208574       5.50184984
N       -0.55218494      -0.22327299       9.62419605      -0.13922034    -609.63187028       0.16880260       2.73377699       1.24970740
N       12.74112225       6.26731491       2.77967787      -0.14406247    -609.75186555       0.80946059       0.04808304      -0.09143528
N        6.81670856      11.55626583       2.70428324      -0.14174026    -609.67052399      -0.98155828      -1.05294398       0.62709659
C        6.39763784       5.98014975       9.94474792      -0.10998829    -610.01311164      -0.39631072       1.41950822      -3.39166146
C       10.69477558      12.42913532       9.16971016      -0.13450600    -610.00901367       5.00519884      -0.82797028      -4.35137499
C        0.58956826       7.75118685       2.61111331      -0.11722426    -610.04783051       1.68416023      -0.37797886      -0.34078830
C        6.64533997       0.71803457       2.97142553      -0.11560921    -609.99975143       2.54279815      -1.60228637      -3.45414253
C        7.26053953       5.42293882       3.14475107      -0.12393284    -609.99960295      -0.54551996      -0.91661984      -1.90076247
C        0.52561945       0.15383281       2.80114293      -0.10366741    -609.99082937       1.69483084       2.15898824       1.39588080
C       12.35092926       5.12345266       8.92100620      -0.11166953    -609.98453964       2.26568435      -0.20567501       0.46675392
C        7.17293596      11.06283188       9.75282001      -0.11395761    -610.00814138      -0.11502260      -2.67909210      -0.74455870
H       11.47238922       5.25853825       8.28152943       0.05719006    -609.15209047      -0.02659689       0.01716195       0.67685094
H        6.43414640      10.24868774      10.07285118       0.06121936    -609.13382484       0.51117093       1.48650291       0.10183746
H       13.04913712       4.42800426       8.33275986       0.06854591    -609.13889631      -0.47017888       1.35056387       0.47632615
H        7.59077024      10.49599266       8.83253288       0.06723442    -609.11842398      -0.56456573       1.65677928       0.73599351
H       -0.04022791       4.54027891       9.86407852       0.06786288    -609.15521548      -0.55368288       0.69564090      -0.29403125
H        8.02148342      11.12275314      10.48928261       0.05029144    -609.20821043      -1.07328524       0.43593510      -0.58609617
H        0.09532759       8.26012897       1.79183185       0.03578324    -609.18522252      -0.53772698      -0.60265451      -0.26334281
H        7.72871637       0.79534656       2.75243020       0.04656021    -609.11664390      -0.23283324       0.32675115       0.84083691
H        1.69473922       7.87805700       2.41480494       0.03364797    -609.20385553      -1.06026177       0.13124216       0.41756078
H        6.37811041       1.00736821       3.93972015       0.03386909    -609.17863060      -0.78210572       0.59348414       1.17606340
H       12.62572479       8.19976997       3.54048896       0.03314671    -609.25155265      -0.20371291       0.54652255       0.80616100
H        6.30564785       1.12179649       2.01529050       0.04525972    -609.14241065      -0.95061807       1.09641170       0.71575594
H       11.90590000       7.50413704       9.40753937       0.13130257    -608.88028752       1.90656172      -2.01866015      -0.72730708
H        5.52067232       0.36279455      10.32570648       0.01510107    -609.38007253       0.18262178       0.09543119      -0.78821617
H        1.09320390       6.64243126      10.05491352       0.04542184    -609.38105452       2.73178180      -0.02164030       5.60250609
H        6.83288622       0.77375078       9.23283672       0.02039893    -609.35558566      -0.88312134       0.01955815       0.19767810
H        1.38946736       6.94191265       8.49966335       0.04319748    -609.33092621      -1.80900781      -1.28419268       1.23188058
H        5.42232561      -0.08496055       8.51500130       0.04334636    -609.26265389       1.20514245       1.04008087       2.26729990
H       12.69511604       6.04796839       3.79113698       0.00792741    -609.45502350       0.29841389      -0.14788491      -0.28470328
H        6.01471090      11.24243450       3.22616243       0.00909070    -609.44902795      -0.83534009      -0.34825558       0.70202507
H        1.30975521       5.82282400       2.31333327       0.00747710    -609.37077138      -0.76856791       0.07418035       0.80615898
H        7.55417538      10.84192657       2.91571212       0.00210538    -609.46004304       0.39031561       0.65860233       0.18123009
H       11.97134304       5.77382183       2.34369564       0.01948738    -609.36575876      -0.81401447       0.23467677      -0.40442436
H        6.52339602      11.35478020       1.75029111       0.00691610    -609.48303693       0.13418308       0.40689361      -0.68483485
H       -0.18517369       0.56610137      10.33587074       0.03005172    -609.35159084      -0.55349282      -1.28192661      -1.79794905
H        8.25735855       7.11277342       9.46700859       0.04381251    -609.30898419      -1.49171189      -2.59622443      -1.31982037
H        8.40981674       5.32753372       9.41068268       0.02715673    -609.40380526      -1.35354854       1.17998379      -0.73128528
H       -0.21654010      11.29084682      10.27788639       0.00826968    -609.46360598       0.30312225      -0.98773486      -0.02515346
H        0.10290575      -0.36057094       8.83865261       0.01008385    -609.43736789      -0.03423655      -0.02314179       0.34535643
H        7.56690359       6.14507246       8.16034794       0.01526464    -609.47064748      -0.51268745       0.06825093      -2.57702268
H        5.75461578       6.86043549       9.42897320       0.07617006    -609.07374769       0.83105939      -1.81390809       1.67977131
H       10.47510052       1.04524601       8.54971313       0.02890277    -609.09629263      -0.44660115      -0.53089951       0.59917091
H        6.63852978       6.13178968      11.03326416       0.04796943    -609.12263603      -0.52773232      -0.58732154      -1.24538306
H       10.30812550      12.60672665      10.07869053       0.05046378    -609.01705973      -2.74298228       0.18345066       2.68967625
H        6.03054714       5.01121616       9.50022697       0.05926578    -609.12579309      -0.16120670       0.65159224       1.36556233
H       10.52495098      11.61598587       8.42319679       0.04503644    -609.08569760      -0.93753812       0.41631386       1.17043655
H        7.69407749       5.63068438       2.13928175       0.04164359    -609.20746896      -0.13094903       0.96439710       0.91049716
H        0.24341740       1.26156104       2.88988113       0.05751287    -609.13580545       0.21472046      -1.29307778      -0.38482642
H        7.25828028       4.34745789       3.04595613       0.05948941    -609.07337281      -0.53680366      -0.64424446       0.09635367
H        1.58658659      12.38817501       1.86553848       0.04405783    -609.22920326      -1.15968596      -0.66336886       1.27691988
H        7.86552715       5.49481153       4.03827953       0.05021763    -609.15833328       0.00540259       1.26280012       0.29748283
H        1.11622429       0.03701490       3.80080485       0.06326797    -609.12353449      -0.91291156      -0.45914475      -1.74678411
H       11.86349392      10.79829884       3.33211517       0.01542993    -609.28943854       0.64375221      -0.47617240      -0.57558464
H        5.50633812       5.25399017       4.09656858       0.00487820    -609.48009488       0.06472738       0.72155849       0.59071969
H       11.55430222      11.64822388       1.86968637       0.00729300    -609.40148313      -0.35342545      -0.35054431      -0.29041991
H        5.11069250       5.24063873       2.57527018       0.03509702    -609.30829257       1.76547733       1.54045298       0.49920719
H        5.53193331       6.83491278       3.37106395       0.03030281    -609.29501186       0.40915812      -1.47447006      -0.34003048
H       10.93693829      -0.06617591       3.40995979       0.01175740    -609.43729460      -1.39145784       1.24219777       0.55341376
96
Lattice="12.299111366271973 0.0 0.0 0.397482693195343 12.292691230773926 0.0 0.0 0.0 12.580405235290527" Properties=species:S:1:pos:R:3:initial_charges:R:1:energies:R:1:forces:R:3 original_dataset_index=298 energy=-58453.89421746542 pbc="F F F"
Pb       9.87409592       9.43269920      12.15338230      -0.15654229    -607.49231414       0.08870256       0.50909367       0.87671130
Pb       2.60515594       3.09567928      12.22725487      -0.12822674    -607.28867033      -0.09914320      -0.26878268       0.15242836
Pb       3.50331688       8.60757828      12.58615398      -0.12652127    -607.31521513      -0.14754531       0.60059050      -0.25189047
Pb       8.66095448       3.71130705      12.68805885      -0.10360760    -606.88099900       0.22611372      -0.17551350      -0.08501719
Pb       9.89801502       8.66703701       6.30467749      -0.13118558    -607.21441351      -0.07043713       0.78892971      -0.43654032
Pb       2.92179847       3.36260676       6.33249950      -0.14469886    -607.41636720      -0.08375323       0.34373416      -0.39897523
Pb       9.33180809       2.78932238       6.70856428      -0.14100121    -607.45265501       0.01688357      -0.50934351      -0.45734711
Pb       3.34949732       9.35745525       6.09432983      -0.15721905    -606.96909754      -0.61348299       0.05570224       0.51308421
I        9.80696678       8.63018608       9.28642845       0.12160761    -608.56788659       0.08488560      -0.10171207      -0.52809206
I        3.66354823       3.34248090       9.28107071       0.12305780    -608.63192840       0.15300729       0.14200190       0.46212948
I        9.61399174       2.48136950       3.62054968       0.12991722    -608.38356423      -0.75341239       0.44389574      -0.37285225
I        4.34762144       9.60410404       3.29157948       0.13227652    -608.39597015      -0.22144276      -0.39404219      -0.57202741
I        2.92402983       3.00023580       3.00463915       0.14594954    -608.52477527      -0.64081503      -0.24643411       0.07804555
I        9.52832413       9.50917149       2.76462269       0.15480174    -608.42192307      -0.24833546      -0.07232235       0.24265879
I        3.65064788       9.10964966       9.49732971       0.14990728    -608.48276121      -0.05093770       0.04521036       0.37057176
I        9.17359924       3.30071855       9.70978737       0.13509512    -608.50188896      -0.07578278       0.30301133       0.67013307
I       -0.76117808       1.90649855      13.05002880       0.11087705    -608.37697355       0.01856583      -0.06697831      -0.76429606
I        6.73126554       8.94333935      12.35046959       0.14933941    -608.37604878      -0.31492887       0.11874459       0.29404733
I       10.11678028       6.47362137       0.17302027       0.12167843    -608.52233783      -0.10812818      -1.08261308      -0.09278953
I        4.40718651      12.43180561      -0.03348681       0.12207763    -608.24745848       0.76615614       0.19151711      -1.05186134
I       12.79724503       9.92703533       6.56009912       0.12974945    -608.55898811      -0.62750865      -0.12683348       0.12098384
I        6.03188419       2.96749353       5.91896820       0.14810583    -608.41660344       0.73382493       0.51571447       0.16106576
I        3.33448219       6.51603508       5.82892609       0.13527308    -608.55307721      -0.01644258      -1.21948972      -0.24178174
I        9.00215340      -0.42338917       6.01613998       0.14479575    -608.38492514      -0.07505419       0.02084012       0.63419383
I       12.82569885      10.09248161       0.15783240       0.14601301    -608.50772292       0.37712356      -0.03325383       0.05140075
I        5.43588781       3.92456436       0.50531000       0.12795825    -608.28656403       0.47552479      -0.10657191      -0.06924610
I        1.77106214       6.21435261      12.10938358       0.13048184    -608.52749298       0.14779891      -0.43376506       0.31066066
I        8.24023819       0.06645958      12.38789749       0.11926415    -608.39576051       0.64404336       0.84294450      -0.13051503
I        0.20987611       2.11926889       6.43977642       0.13855003    -608.37765953      -0.62693359       0.62199150       0.99379161
I        6.44686460       9.25980663       6.85806561       0.11750596    -608.43836902       0.26208180       0.36111960      -0.41373105
I       10.08078957       5.69301033       6.06442738       0.12136519    -608.54708308      -0.10140639      -0.14378926      -0.02316094
I        4.14510012      12.47639179       6.36757231       0.11751705    -608.28717868       0.08442139      -0.72215605      -0.22318991
N        6.32237530       6.07769442       4.06870842      -0.08095007    -609.63207658      -0.20916779      -1.19651822      -0.18354493
N       11.88919258      11.64070320       3.72080946      -0.14252566    -609.75263157       0.52934023      -1.01762566      -0.99817688
N        1.34347820       6.37341690       8.55527401      -0.05943736    -609.76697857      -0.29111626       0.17325576      -0.60077038
N        5.30148220       0.20146801       9.48135471      -0.14130481    -609.81126306      -0.91744875      -3.30844118      -0.19528375
N        6.97557449       6.77081537       9.86530304      -0.07247680    -609.55062870      -0.62860109      -2.51602746       3.64483171
N        0.65603453       0.29087594       9.44928360      -0.06132034    -609.71722619      -2.13478610       1.49569253       0.35632386
N       11.95297813       4.61578941       2.60207868      -0.14895892    -609.84399606       0.33276957      -0.26572025       2.10569098
N        6.50717020      11.80483913       2.51858401      -0.14326623    -609.51618402       4.07802215      -2.26952826       0.18352250
C        6.27766371       6.11611032      10.81918335      -0.03583802    -609.71274817       1.23950721       2.57453978      -2.60846790
C       11.96980762      12.14661980       9.46797657      -0.12082268    -609.91338888      -0.40843904       2.01517898       2.39892148
C        0.19260889       5.88845682       3.23113799      -0.11490227    -610.01193261      -1.20653278      -0.18938597       0.36357406
C        6.55409098       0.63748688       3.51237106      -0.13317497    -609.82795124       0.10562948      -2.35811884       1.29492017
C        5.86586618       4.91019583       3.49555373      -0.04702866    -609.72855555       0.52036421       3.95180518       3.43226901
C        0.16518986       0.46911761       3.77447653      -0.12752345    -610.08418046       0.09649956      -0.66247996      -1.46815365
C       12.54685879       5.61586952       9.01364803      -0.10946864    -609.98794940      -0.37173202      -1.52824869       1.23628409
C        7.13354158      12.52129459       9.29594040      -0.11294782    -610.04530424       1.46788831       0.96359636      -0.35667205
H       12.25555229       5.67008209      10.13843536       0.08000750    -608.93015264       0.25056456       0.20706078      -1.32745700
H        7.39831161      12.32834625       8.24487400       0.04232164    -609.22927784      -0.22377125       0.37440045      -0.00726287
H       11.75473690       5.99427271       8.40048218       0.05433673    -609.01097459      -1.23546186      -0.30708678      -0.01942497
H        7.52811241      13.53555489       9.61734486       0.03842790    -609.21520529      -0.19215331      -1.28723247      -0.27107040
H        0.40265408       4.50341034       8.82805157       0.06482340    -609.03387408      -0.23276981       1.03285508      -0.04045722
H        7.59683609      11.68833065       9.83531094       0.04094370    -609.17446501      -0.13373108       0.30759152       0.23276123
H       -0.25411955       6.07075787       4.20702934       0.04901465    -609.17070686       0.90179984      -0.84347396       0.78398242
H        7.06065512       0.06105761       4.31133175       0.06215991    -609.13173507       0.54239772       0.69863442      -0.44555185
H       -0.36438286       6.66768932       2.77589393       0.05655784    -609.13474656      -0.52447589       0.95016987      -1.39152796
H        5.58863258       0.76086909       4.00468826       0.06161090    -609.10049278       0.06760035       1.10332689       0.04205903
H       13.52228546       6.13857412       3.06643581       0.04217726    -609.17823141       0.71359701      -0.57043098       0.22095701
H        7.10867262       1.54057837       3.22084737       0.06064945    -609.01271773      -0.34967037      -0.57938073      -0.52696058
H        6.58839226      10.59721470      15.59003448       0.11060484    -608.86908184      -0.89199449       3.83846449      -1.62436052
H        5.00680017      -0.07870644      10.48523140       0.00122190    -609.45945450       0.22685350      -0.03058077      -0.79683574
H        2.24396038       6.08618164       8.84310055       0.04492965    -609.33695364       1.01579740       0.26756705       0.50204325
H        4.81999111       1.05457819       9.35178185       0.00997041    -609.44356265      -0.59993822       1.98751324      -0.50848957
H        1.15121388       7.36160231       8.45261002       0.04077395    -609.34546836       0.52622110      -0.04570021       0.23300099
H        4.87457466      -0.46954045       8.75287151       0.01648676    -609.40851565       0.26980892       0.79914868       1.39274739
H       11.63376808       4.98706484       1.71430278      -0.00272289    -609.43167831      -0.14766408      -0.80610250      -1.10364134
H        5.17235136      10.59806347       6.00833178       0.20722404    -608.79108444       0.91557712       0.54798820       0.66032326
H       -1.21198368       4.23016787       3.14455605       0.01542960    -609.35930319       0.77842940       0.56922965      -0.60462450
H        6.74676085      11.81206703       1.47670496       0.03849810    -609.17696101       0.91360774      -0.18466340       1.40735365
H       12.57133961       3.73316622       2.60674906       0.02289080    -609.22515683      -0.15556102       1.64674378      -0.37325154
H        5.70304871      12.30736732       2.43593860       0.03414335    -609.21006197      -4.56623793      -0.27028792      -0.53094153
H       -2.30497217       1.05895579      12.17124653       0.16542473    -608.90175664      -0.11965928      -0.27755984       0.63891260
H        7.89381790       7.08537722      10.13583660       0.05964838    -609.19887773       0.77251957       0.30297303       0.10769728
H        8.80755043       6.68356609      15.46978951       0.06848019    -609.07125170       0.32871675      -0.31169294       0.21396273
H        1.38290668      12.64598846      10.41036224       0.04932381    -609.25158669       0.77672367      -0.69646482      -0.71682513
H        1.06677520      -0.16857807       8.68774986       0.04531689    -609.29287238       1.97256557      -0.74872213      -0.44683292
H        6.62945032       7.27836370       9.09379864       0.07632136    -609.10777939      -1.18574507       0.17652338      -1.41480546
H        6.65074158       6.03876448      11.84060192       0.06770531    -609.03766336       0.35762597      -0.19901922      -0.47657082
H       11.51152325      -1.16116071       9.75988007       0.06061721    -609.03684986      -0.51156242      -1.45293362       0.36311958
H       26.39588737       0.19621526       1.62158978       0.11748082    -608.81819635       1.13285244      -1.87555450      -0.57098145
H       11.32534409      12.32328796       8.63880157       0.05809903    -609.14421254       0.09156387       0.18842430      -1.47946545
H        5.27675867       5.83285093      10.56521893       0.07492042    -609.09748291      -0.70634225      -0.21579722       0.00794598
H       11.45635986      12.79508877      10.24390507       0.05677323    -609.05142811       0.27073458      -0.87993051      -0.34797366
H        9.19945908       6.15826464       3.29129982       0.06579194    -609.06174158      -0.44824787       0.15818643      -0.14302416
H        0.67725229       0.45068085       4.70410395       0.02868589    -609.14619245       0.88941945      -0.19286052       0.28467815
H        4.73639584       4.74187946       3.68559861       0.08155302    -609.04597516       1.80793740      -0.41250622      -0.77834354
H        0.01473446      13.65929794       3.64413977       0.03664886    -609.13787893      -0.77449300       0.94020679       0.62736930
H        6.72915363       4.39124584       3.11680651       0.08364524    -609.04234416      -0.45337039      -0.90064026      -0.71463155
H        0.75536436       0.53288531       2.83754730       0.04412504    -609.06573737       0.31692817      -0.93405797       0.64590628
H       11.15443707      11.92422676       3.06446528      -0.00538429    -609.49708880      -0.32568790      -0.33117006      -0.00374428
H        7.34120131       6.37606430       3.96829009       0.07839194    -609.05624913      -1.60267560      -0.70085239       0.21695643
H       11.39286327      11.35671997       4.62169266       0.00505869    -609.37758747       0.51799290       0.66340075      -0.58165436
H       15.04142380      11.88588619       1.27520919       0.09074628    -609.07500045      -2.19590372       1.87044441       1.45452093
H        5.76319456       6.55056334       4.85763931       0.08113865    -609.12637545       0.36716909      -0.50770574      -1.62415706
H       11.92684746      -1.52451932       3.30745268       0.01172302    -609.41148137      -0.55372604       0.86814051       0.41070757
96
Lattice="12.299111366271973 0.0 0.0 0.397482693195343 12.292691230773926 0.0 0.0 0.0 12.580405235290527" Properties=species:S:1:pos:R:3:initial_charges:R:1:energies:R:1:forces:R:3 original_dataset_index=299 energy=-58454.46549911037 pbc="F F F"
Pb       9.87106037       9.42785358      12.16051579      -0.15783145    -607.50459949       0.13587853       0.54935810       0.84789908
Pb       2.61082101       3.10041404      12.22695637      -0.13127153    -607.33275540      -0.10361685      -0.35275386       0.12062405
Pb       3.50007200       8.60578060      12.58712864      -0.12688701    -607.31563151      -0.16343023       0.65380831      -0.23187454
Pb       8.66403770       3.71193171      12.69071198      -0.10489083    -606.92800848       0.21071610      -0.21755154      -0.06034270
Pb       9.90354156       8.66869164       6.30335140      -0.12999639    -607.19286490      -0.05875844       0.80395243      -0.43055474
Pb       2.92195606       3.35781169       6.33519411      -0.14405312    -607.41841818      -0.10381253       0.41220717      -0.36660487
Pb       9.33220959       2.78927207       6.70780039      -0.14121716    -607.45582423       0.03419594      -0.51337181      -0.48913839
Pb       3.34496546       9.35996342       6.10021734      -0.15836778    -607.15090107      -0.34293216       0.09680001       0.44256677
I        9.80271149       8.62932491       9.28541088       0.12222421    -608.56499950       0.08068656      -0.09004921      -0.48976304
I        3.66372609       3.34406185       9.28675938       0.12289412    -608.62996836       0.15819660       0.14419308       0.40621689
I        9.61578941       2.48678803       3.61026287       0.13173214    -608.37956926      -0.84875401       0.34983735      -0.30956330
I        4.34939337       9.59910107       3.28848147       0.13434000    -608.41531761      -0.32143443      -0.39616471      -0.51859032
I        2.93120003       2.99446106       3.00077176       0.14432338    -608.50938508      -0.64923431      -0.20236089       0.12795861
I        9.52355003       9.51154041       2.76670003       0.15493517    -608.41418660      -0.23681533      -0.03017389       0.23032376
I        3.65165949       9.10619164       9.49088192       0.15013880    -608.48051132      -0.03901219       0.04933491       0.40034584
I        9.17120457       3.30132246       9.70385647       0.13540691    -608.50448176      -0.08215628       0.29766124       0.69450692
I       -0.77159536       1.90697849      13.04703045       0.11343998    -608.35404414       0.00584638      -0.05966856      -0.81275708
I        6.72957802       8.94963074      12.34916878       0.14711085    -608.39017557      -0.30520120       0.23034794       0.34842817
I       10.11212349       6.47676134       0.17303324       0.11922697    -608.52149338      -0.07572045      -1.13760830      -0.01472287
I        4.41610241      12.43692112      -0.04076081       0.13602334    -608.39039595       0.13207892       0.15260985      -0.58619851
I       12.80027294       9.92869949       6.57043743       0.12896203    -608.55137526      -0.63029087      -0.12210635       0.11075683
I        6.02697802       2.96820354       5.91977358       0.14726654    -608.43387918       0.72366770       0.51810679       0.07843283
I        3.33803344       6.51120090       5.82697010       0.13607427    -608.54183157      -0.01127678      -1.18533544      -0.25793218
I        9.00461197      -0.42106920       6.02008772       0.14450783    -608.39024596      -0.04339131       0.00919355       0.63185616
I       12.82142544      10.08963871       0.15270188       0.14762315    -608.48430613       0.38247126      -0.05139392       0.02154187
I        5.43217564       3.92774677       0.50551724       0.12908465    -608.30392367       0.59173903      -0.00365054      -0.05108920
I        1.77832651       6.21446371      12.10379696       0.12923095    -608.52710638       0.13615948      -0.40602785       0.30798794
I        8.24650860       0.06835010      12.37987995       0.11756130    -608.39199937       0.78076983       0.90185382      -0.13463680
I        0.20767136       2.12314081       6.44749069       0.13926256    -608.37492632      -0.59099158       0.59955089       0.95701480
I        6.44806576       9.26663685       6.85472250       0.11498471    -608.42712372       0.26829497       0.37483473      -0.41542090
I       10.07405090       5.69414377       6.06746149       0.12065794    -608.54559676      -0.08605018      -0.14823659      -0.03801935
I        4.14116573      12.46675873       6.36992598       0.11667266    -608.28479035       0.14607341      -0.76620890      -0.25962373
N        6.32852793       6.08885193       4.04963732      -0.08001770    -609.58452372      -2.18587525      -2.26672490       0.09176551
N       11.90591908      11.61594582       3.71414733      -0.14386612    -609.75654750      -0.30425545      -0.11927588      -1.48692726
N        1.34541726       6.35876083       8.52964497      -0.05971071    -609.72389663      -0.77397333       0.39620460      -0.78710658
N        5.30648518       0.19622633       9.48111820      -0.13948707    -609.81778928      -1.36297176      -2.45229777      -0.13659106
N        6.96715832       6.77846241       9.87967396      -0.07660978    -609.58695231      -0.73163979      -0.00509466       0.17779200
N        0.65953368       0.30397296       9.44139862      -0.06127854    -609.72439854      -2.33951073       1.92910048       1.33960482
N       11.93844128       4.58928156       2.60489225      -0.14733493    -609.83567744       0.66471238       1.55759956       0.98289876
N        6.51730061      11.79846478       2.50865507      -0.15250210    -609.59633743       3.12613426      -2.33659172       1.64961551
C        6.27933168       6.14189911      10.80975914      -0.04226063    -609.77395847       0.72314479       1.86998844      -3.05274047
C       11.97263908      12.14534473       9.48498917      -0.11949299    -609.94392330      -1.19250273       0.72586405       0.54199927
C        0.20332792       5.87214231       3.25183082      -0.11562621    -609.99726717      -3.37439356       0.34949787      -1.32008517
C        6.58020210       0.60288513       3.52071977      -0.13096607    -609.83252795      -2.73719939      -3.30484423       2.17806893
C        5.87122202       4.90143394       3.49848127      -0.04477213    -609.62753892      -1.57166717       4.47111113       3.38553027
C        0.15951440       0.46167195       3.78190041      -0.12937784    -610.08097909      -0.55823716      -0.38267783      -2.04835039
C       12.54017544       5.60607719       9.02942467      -0.11122518    -609.96522670       0.12056801       0.61423260       0.78204965
C        7.14436436      12.51936817       9.30523109      -0.11439252    -610.05338293       0.66486424      -0.19864043      -0.62739064
H       12.33829212       5.65776348      10.13566875       0.07197954    -608.95875674      -0.29498703       0.46954998      -0.62588014
H        7.42391396      12.31797981       8.26869297       0.03889113    -609.24173081      -0.17843396       0.05699550      -0.20588205
H       11.77705479       6.01361799       8.39342594       0.05271933    -608.99505755      -1.36070313      -0.38796909       0.29953983
H        7.50066328      13.50709057       9.55431557       0.03329543    -609.23397185       0.36243975       0.21407186       0.32613026
H        0.37054649       4.56615782       8.86481667       0.05908699    -609.04257965       0.07163785      -1.33992420      -0.60036555
H        7.59822750      11.73010445       9.91426468       0.03707590    -609.18844000      -0.07364018       0.27710739      -0.01402738
H       -0.18646826       6.09809065       4.21694994       0.04981822    -609.16340520       0.47152808      -0.93545208       1.47114007
H        7.06115818       0.08634274       4.37288523       0.05208813    -609.16403832       0.28964061       0.48223091      -0.63727037
H       -0.41715413       6.64796352       2.76828194       0.06038553    -609.11771541       0.25812420       0.05762264      -0.58770016
H        5.53069210       0.80829906       3.92224741       0.06455528    -609.08118594       1.42110053       0.43571036      -0.01761486
H       13.47750473       6.14586878       3.02939153       0.04607986    -609.17067283       2.14505735      -0.27365858      -0.19504174
H        7.02236652       1.49275851       3.23938298       0.06070441    -609.02878652       1.14124672       1.42534434      -1.37294849
H        6.56551838      10.69859219      15.55025005       0.06465895    -609.01441725      -1.21816369       3.42025630      -0.91023344
H        5.03267336      -0.09811114      10.48463154      -0.00086066    -609.46771057       0.15062435       0.12337065      -0.76962292
H        2.24526262       6.14958572       8.86619091       0.04506113    -609.34037695       1.20573649       0.11402682       0.72264620
H        4.80619764       1.07103252       9.36346340       0.00878102    -609.44871208      -0.07612480       0.94921511      -0.34249281
H        1.10157311       7.34280682       8.46413612       0.03935862    -609.34425684       0.66899430      -0.07887426       0.17220776
H        4.86144209      -0.48848480       8.78446388       0.01492596    -609.42234474       0.37939449       0.83496734       1.16286666
H       11.57051277       4.95393419       1.70346081      -0.00192699    -609.42630687       0.30736013      -0.75708689      -0.21635629
H        5.28365946      10.68648338       6.00187159       0.19996239    -608.77333434       0.59344679       0.42188221       0.67353554
H       -1.20388412       4.23112249       3.12854266       0.00669049    -609.40660159       0.33967770      -0.01408166      -0.00780645
H        6.85922098      11.58075714       1.56770515       0.03360187    -609.23691406       1.16605223       0.71835469      -0.16440505
H       12.61182690       3.79266691       2.54708171       0.01392005    -609.29116946      -0.05223941       0.57399800      -0.12922074
H        5.74018526      12.36887646       2.34767556       0.02914727    -609.21481259      -3.24338858      -0.80790963      -0.98206916
H       -2.30981779       1.02179623      12.06838894       0.17458211    -608.87899160      -0.24299901      -0.30916819       0.73958803
H        7.87678194       7.16388941      10.19359303       0.05794316    -609.18789122      -0.22344441       0.10098083      -0.49918193
H        8.61411190       6.66719484      15.52274990       0.06423698    -609.08326615       0.60441732      -0.34985258       0.25587649
H        1.32028520      12.64426517      10.44305420       0.05195092    -609.21082543       1.05098473      -0.73067773      -1.40514284
H        1.05621278      -0.19166386       8.69375038       0.04912556    -609.26306501       1.99665450      -0.84693041      -0.28044376
H        6.59270000       7.21572304       8.95332813       0.08746225    -609.04986532       0.47553199      -1.34875662       1.81805788
H        6.65691710       6.10839987      11.80002022       0.06203010    -609.08037447       0.48269076      -0.29202296       0.67500613
H       11.61384487      -1.22661710       9.75215054       0.06640161    -609.00987858      -0.99278915       0.31704628       0.06235982
H       26.37652588       0.05538543       1.65571404       0.05031460    -608.89059426      -2.35430006       2.32928758       0.45058561
H       11.32590294      12.31696033       8.57969570       0.06319284    -609.12375203       1.02068680      -0.29560678       0.12856487
H        5.33229589       5.75555468      10.50933743       0.07219515    -609.11613885      -0.90120580      -0.33361531       0.11770227
H       11.41635704      12.81475449      10.21819210       0.06127026    -609.05244440       0.50718779      -1.17790971      -0.25730477
H        9.13306904       6.27360535       3.36353254       0.06590363    -609.06739309      -0.63468155       0.17266234      -0.28836454
H        0.65310442       0.48429444       4.70194292       0.02979687    -609.15359951       1.11515667      -0.17646215       0.91623020
H        4.63835239       4.76039457       3.58960605       0.10363014    -608.94382481       3.25554585      -0.31166991      -0.51410095
H       -0.02818763      13.63316345       3.60548139       0.03834651    -609.16015774      -0.53770790       0.68099931       0.74701235
H        6.73879862       4.40193415       3.19423461       0.09270743    -608.97152398       0.47426791      -1.68897931      -1.30842319
H        0.74718595       0.51972902       2.86107588       0.04806202    -608.99671012       0.45947558      -0.83673522       0.50623583
H       11.14593506      11.92766762       3.05470777      -0.00349742    -609.47935426       0.48648418      -0.80646755       0.38595486
H        7.30299139       6.33368921       4.04060698       0.07641427    -609.06714428       0.64407457      -0.24822397      -0.14873000
H       11.38921261      11.35546303       4.58557510       0.00208173    -609.39495582       0.33632075       0.47968056       0.03353024
H       14.92489910      11.85262299       1.60017109       0.04857844    -608.92088741       1.98121168      -2.40711865      -0.02239805
H        5.81327915       6.47599840       4.87265253       0.07651716    -609.12373068      -0.30868825       0.17475194      -1.12141459
H       11.94678307      -1.55037582       3.34514856       0.00943073    -609.42202786      -0.43034763       0.61660222       0.02991100
96
Lattice="12.299111366271973 0.0 0.0 0.397482693195343 12.292691230773926 0.0 0.0 0.0 12.580405235290527" Properties=species:S:1:pos:R:3:initial_charges:R:1:energies:R:1:forces:R:3 original_dataset_index=428 energy=-58452.09804021834 pbc="F F F"
Pb       9.59018326       9.30039692      12.54566765      -0.12021635    -607.13124686       0.13605613      -0.06287111       0.54670750
Pb       2.83417368       2.96259427      12.39221764      -0.13276133    -607.40972019       0.81845054       0.75028560      -0.22407307
Pb       3.52201772       8.97706699      12.69176292      -0.13489752    -607.35139539      -0.14043499      -0.38701369      -0.51405610
Pb       8.47986698       3.25344920      12.75730038      -0.12957208    -607.24410807       0.29933265       0.22367123       0.00969255
Pb      10.32987499       8.92846394       6.09877539      -0.12044784    -607.01007716      -0.27242624       0.06390768       0.21004315
Pb       2.93454885       3.11071682       6.31763697      -0.14467759    -607.50654766      -0.03965515       0.04346080       0.19027193
Pb       9.15121937       2.72683787       6.46445465      -0.14544445    -607.45104622       0.46536149       0.11249603       0.01656040
Pb       3.19771528       9.21302128       6.25714207      -0.13223062    -606.98268040       0.29717261       0.28787547      -0.01402614
I        9.21859646       8.77946281       9.42397308       0.10092489    -608.29362567       0.74004846      -0.55411703      -0.23206634
I        3.87686324       3.17670655       9.37280560       0.13295670    -608.48883360      -0.35285029      -0.21099358       0.39506397
I        9.41988945       2.85781670       3.27928877       0.13532226    -608.62544831       0.42183469      -0.09279767      -0.04118511
I        4.01985407       8.95553589       3.03202057       0.13059174    -608.52795655       0.09355976       0.24420221       0.17542164
I        2.51638865       2.92679024       3.13509393       0.12052023    -608.62140103       0.04365200      -0.13851399      -0.06487219
I        9.63350296       9.39117241       3.06807017       0.12661242    -608.61375471      -0.08204498      -0.10937877      -0.26726201
I        3.93171954       9.20283508       9.37750721       0.13840054    -608.35062309      -0.30508018      -0.27419078      -0.03530696
I        8.80690384       3.53414941       9.68832874       0.13355379    -608.50712956       0.27971894      -0.01652594      -0.15586782
I        0.01986321       1.99966335      12.75740337       0.10037795    -608.20896588      -0.38952965       0.71905290       0.97973677
I        6.61996126       8.64404869      11.88523388       0.13983585    -608.27434414       0.16691469      -0.12557586       0.48550557
I       10.54980850       6.08435869      -0.29742894       0.13380626    -608.36866277      -0.55675790       0.55486799      -0.58715773
I        4.56554985      12.34157372       0.09092529       0.10418329    -608.38348033      -0.27719804      -0.01210399      -0.43108376
I       12.90564919      10.25038910       7.41987753       0.13012098    -608.48624531      -0.54299666      -0.46639613       0.30623270
I        6.25174189       3.40710354       6.43358374       0.13507301    -608.36451372      -0.55559011      -0.03027512      -0.92822305
I        3.38912892       6.27385664       5.71471310       0.13530265    -608.44443948      -0.26990854      -0.59717911       0.07822607
I        9.22069931      -0.29063112       6.09374189       0.11608095    -608.46937596       0.12368581       0.08391067       0.18542315
I       12.98627186      10.11247730       0.09967243       0.14454050    -608.56437672      -0.35297266       0.13738629      -0.07986747
I        5.81888723       4.60576487       0.36200124       0.14228792    -608.59014556      -0.14049602      -0.14699271       0.01742947
I        1.86589539       5.97757912      12.43945980       0.14058729    -608.41587538       0.33023759      -0.01550563       0.45731624
I        7.83179092       0.24041304      12.04409122       0.11110506    -608.47862794       0.33780515       0.01032147      -0.13864084
I       -0.01394573       2.14944553       6.85292006       0.13930713    -608.50042594       0.15794266       0.33400534      -0.11753991
I        6.88642311       9.21263218       6.25896788       0.10987742    -608.42935252       0.49655177      -0.08299615       0.20304584
I        9.45629120       5.91452551       5.99567223       0.12864183    -608.49716944      -0.35185202       0.06129572      -0.35309722
I        3.80989194      12.43327332       6.34435797       0.13629958    -608.53112857       0.31868328      -0.27350907      -0.14900034
N        6.64150190       6.66633844       3.82717776      -0.08456199    -609.60497685      -0.77830105       1.77465628       0.26902239
N       12.58898354      12.58394146       3.81355810      -0.15059200    -609.69836293      -1.75842569      -0.73093706      -2.10805702
N        0.08795989       5.89681816       7.50066280      -0.08177681    -609.55871387      -2.49640878      -0.26188482       1.62505724
N        5.45326424      -0.49413866       9.17813683      -0.13915479    -609.75345718       2.89874008      -0.94196379       0.35043997
N        6.70980597       6.46476650       8.57256794      -0.08637790    -609.69640720       0.27184879       2.67721554      -0.31892930
N        0.48375371       0.92763537      10.17534351      -0.06964866    -609.93009287      -0.35434367      -1.08779552       0.05539701
N       12.49026585       5.51679659       2.89728308      -0.14998367    -609.74740921      -0.16332601       0.52003435       0.73995294
N        7.04936361      12.27212906       3.85613871      -0.06736466    -609.71823668       2.89832451      -1.84459417       6.42686112
C        6.52114820       5.38527679       9.19892597      -0.06749047    -609.84724202      -0.04249507      -0.48608523      -0.23507978
C       11.86783600      12.67535591       9.76679516      -0.12022626    -609.92525669      -0.72975397       0.01165196       1.20929359
C        0.49834198       7.00061703       3.09968615      -0.11504363    -610.03902363      -0.08774065      -1.25394798       0.58135065
C        6.28540850       0.85199255       2.79853082      -0.11455777    -609.89349926      -2.01200882       2.03384964       0.53119721
C        6.57769537       5.41886616       3.71484447      -0.05700840    -609.92940452       0.51708647      -1.84912494      -0.45412977
C        0.41883054      -1.14347708       3.85766363      -0.11606834    -610.07418523      -0.59018036      -0.02499539      -0.40086784
C       12.60255241       5.31989145       8.71223927      -0.03282201    -609.63774059       5.38653288       2.06157510      -2.71404240
C        6.88635683      12.80881310       8.71238422      -0.11086215    -610.06581783      -1.13064920       0.28027164      -0.14486226
H       15.54123878       6.41045713       9.92711163       0.08812937    -609.05775734      -1.33077497      -0.79995226      -0.85397475
H        6.89611626      12.73096180       7.62821245       0.03026105    -609.23516770       0.01621099       0.10513572      -0.15793685
H       12.10230255       4.44208813       8.86272717       0.08951046    -608.89522813      -2.09936429      -1.89009835       0.90718183
H        6.54916382      13.83481121       9.01352787       0.03426336    -609.21006676       0.40506967      -0.91421455      -0.14804525
H        1.45449293       5.26221228       8.91244602       0.08933844    -608.80275178      -2.05156609       0.25910556       0.37305723
H        7.85906458      12.53471947       9.09787846       0.04199905    -609.16536624       0.14445393       0.04531267       0.28292239
H       -0.05895449       7.36265707       3.97224045       0.03439439    -609.20139272       0.37097673      -0.00290767      -0.01214032
H        5.08887720       0.94317722       2.45352435       0.10447723    -608.86762517       2.58965984      -0.89700798       1.25033265
H        0.06941041       7.36944723       2.20053005       0.03704039    -609.21814943      -0.25670043       1.22107554      -0.75728502
H        6.86704588       0.42493114       2.03408074       0.07792260    -608.86561957       0.35660470      -0.00887761      -1.82075897
H       13.89187527       7.14320230       3.11802912       0.03223507    -609.22988373      -0.46527972       0.01178064       0.19987507
H        6.48543262       1.98090422       2.88755083       0.09637439    -608.85660874       0.34601123      -1.10769257       0.17810612
H        6.27214909      12.93920135      12.12436676       0.14822087    -608.88210342      -0.00086157      -0.60137125       0.30875195
H        4.97909164      -0.23533472      10.02476215       0.00452795    -609.46892649      -0.25916036       0.19224748       1.09902673
H        0.56876940       6.65230274       7.00074196       0.07923072    -609.14401662       0.47925124      -0.24771359       0.72001766
H        4.72168398      -0.66614604       8.52867222       0.00539027    -609.43483794      -1.19881293       0.04584324      -1.49312290
H       -0.95159584       5.86179829       7.30547142       0.05163204    -609.12989806       1.10336201       0.07125683      -0.70253454
H        5.89648819      -1.45665419       9.30961132       0.00883050    -609.40592966      -0.64202082       1.16150970       0.12201261
H       12.72935390       5.41431522       1.89023316      -0.01323724    -609.45667259       0.00094814      -0.69744370      -0.06847649
H        5.13052988       8.52924633       6.68684530       0.18649718    -608.65426647       0.04889481       0.27161986      -0.18111225
H       -0.80549443       5.29686546       3.08501649      -0.00135216    -609.45346544       0.21243915       0.10501489      -0.24157179
H        7.29405260      12.56296158       5.02630949       0.12517168    -608.83018914      -1.93665821       0.12719977      -4.09258666
H       13.04867935       4.85205698       3.46723533       0.00028908    -609.39057629       0.17384631       0.19906056      -0.28162208
H        8.01335621      11.65641403       3.96839857       0.09954217    -609.04977132      -2.66954689       1.90737517      -2.16798115
H        0.32421461       2.93626308      14.33727741       0.19003676    -608.65836117      -0.33607933      -0.95386646      -1.10976597
H        6.75290966       7.32917356       9.16852093       0.05309076    -609.14420782       0.13506062      -0.47431219      -0.97676973
H        8.90714836       5.83552885      14.90383434       0.04033511    -608.97847899      -0.07322878      -0.01355617       0.19464227
H        1.49311721      12.43263817      10.50170708       0.04483084    -609.36599161      -0.27064787       0.94648402      -0.91659525
H        0.80807227       1.44579637       9.34580326       0.03752309    -609.42296323       0.71035085      -0.28907400       0.52067035
H        6.87727308       6.56510401       7.53672314       0.05743510    -609.10444327      -0.30990149      -0.16395190       1.09301497
H        6.40470934       5.38404942      10.24338150       0.06552614    -609.13875582      -0.25849161       0.17449057       1.34596609
H       11.43859673      -0.20942900       8.83359432       0.05896817    -609.08731873       0.15573557       0.37584783       0.19335778
H       14.87237072       5.97202873      -2.90213251       0.09064919    -608.90865971       1.84117893       1.11411071       0.44824328
H       11.16102028      13.52656364       9.72186756       0.05959476    -609.07224377       0.11524883      -0.33670502      -0.20099981
H        6.36757231       4.51969433       8.63309193       0.05572604    -609.07352225      -0.20733662      -1.27833088      -0.56155708
H       11.50263691      12.00812244      10.57988071       0.05849243    -609.06130397       0.10647539       0.22490155      -0.30038590
H        8.57770729       6.13078642       1.72181547       0.05029105    -608.97503971      -0.07688219       0.07165702       0.08339634
H       -0.06333004      -1.67586505       4.66651106       0.03020469    -609.25009486      -0.34751975      -0.23400461       0.01203082
H        5.79822445       4.88300896       3.19452167       0.06534945    -609.18140622      -0.88923146       0.36040147       0.18110394
H        1.81221604      11.34373856       4.17359352       0.03556756    -609.24630580       1.23619952      -0.45113777       0.25532043
H        7.38522863       4.78896904       3.95359993       0.05713620    -609.07605374       1.32004775      -0.55714236       0.51662459
H        0.41386846      -1.69626510       2.87732100       0.05057264    -609.14965018      -0.32647095       0.78300928       0.70378599
H       11.69647789      12.81208706       4.42558002       0.03111087    -609.19695493       2.33131546      -0.14846414       0.15211734
H        7.44694996       7.23266125       4.23264170       0.06678605    -609.04335827      -1.11602659      -0.76776757      -0.42077029
H       12.08971024      12.75564480       2.89199781       0.01790965    -609.31913689       1.03606686      -0.13578960       0.49471614
H        9.66641331       7.44676971      10.66010952       0.18647081    -608.79378281       0.08739446       0.24031138      -0.33354931
H        5.72362471       7.09586048       3.57850361       0.05100620    -609.14127924       0.76144717       1.04271650       0.13854491
H       13.12797260       0.78739381       3.77573991       0.01036495    -609.27485088      -1.68780298       1.00618463       0.68876901
96
Lattice="12.299111366271973 0.0 0.0 0.397482693195343 12.292691230773926 0.0 0.0 0.0 12.580405235290527" Properties=species:S:1:pos:R:3:initial_charges:R:1:energies:R:1:forces:R:3 original_dataset_index=174 energy=-58455.082722524145 pbc="F F F"
Pb      10.04976463       9.98342800      12.29639053      -0.13331576    -607.25933189      -0.05387342      -0.96540564      -0.38315656
Pb       2.56438756       2.76659417      12.23680305      -0.14587362    -607.29698908      -1.25907874      -0.57565867       0.36088598
Pb       3.75855374       8.72969341      12.49868202      -0.11718813    -607.12678864       0.02773605       0.22219549       0.28219603
Pb       8.47480202       3.48075175      13.04928207      -0.12344384    -607.11734826       1.18190332       0.41378198      -0.64342493
Pb       9.39337730       8.76911926       6.07046795      -0.13956928    -607.50428227       0.83240021      -0.29280014       0.27083469
Pb       2.80632472       3.20083714       6.02809191      -0.12832262    -607.23068328       0.27368323       1.03220788      -0.06809837
Pb       9.52392673       2.55497384       6.78864002      -0.14108512    -607.43869170      -0.56134406       0.64843471      -0.70648600
Pb       3.34906483       9.86941147       6.50611687      -0.14431356    -607.03635040       0.00649988      -1.45033588      -1.82120318
I       10.31027699       8.37290764       9.10415363       0.16075075    -608.47609572      -0.34061301       0.28235760       0.05998492
I        3.63456059       3.24955463       9.55792427       0.12228645    -608.52858102       0.08615780      -0.09205788      -1.16447896
I        9.10753822       2.77293181       3.22963667       0.11893048    -608.37296711       1.15623438       0.18034599       0.72443116
I        4.57260990       9.38909245       3.05706286       0.14873935    -608.52661191      -0.47492450       0.69714040      -0.25882028
I        2.26317859       3.38413358       2.94300604       0.14382082    -608.47992907       0.16348758      -0.11962650       0.49632098
I        9.69466686       9.20221043       2.69055939       0.14534780    -608.57281247      -0.18457548       0.24975439       0.09809996
I        3.44320917       9.60943222       9.24562454       0.11670055    -608.53339801       0.06210598      -0.25649509       2.01633923
I        9.44060135       3.21196961       9.62183762       0.13631667    -608.65435721      -0.25978710       0.15793334       0.73896704
I       -0.67050284       2.20510173      13.00260353       0.13387835    -608.18493761       0.24167942       0.94885655       1.35836668
I        6.74119854       8.45594120      12.47443962       0.14083914    -608.44099715       0.21409607      -0.04239724      -0.26484409
I       10.24482918       6.03644466      -0.16193227       0.15213725    -608.47375211      -0.39021080      -0.06990206      -0.10772646
I        3.87138653      12.01183796       0.13156518       0.13675489    -608.50443117       0.51108001       0.12799042      -0.21173878
I       12.73895359       9.79617691       5.86411572       0.14071795    -608.58520374      -0.48626319       0.37556806       0.25911367
I        6.54183578       3.89399314       6.44952440       0.16654731    -608.55540312      -0.12608938      -0.13267166       0.17923244
I        2.86841941       6.63061619       5.82203245       0.16038530    -608.50496495       0.29279605      -0.51530974       0.06008723
I        8.29860020      -0.35043204       6.13365412       0.12924524    -608.47187991       0.40571350      -0.05876529       0.46741895
I       12.96127987      10.23656654       0.19675654       0.13789101    -608.52673222      -0.03895532      -0.04962996      -0.13553925
I        5.40719223       3.54210377       0.18491355       0.08431252    -608.08114045       1.02309425       0.24314735      -0.65895076
I        2.19727302       5.73066282      12.71597385       0.13734116    -608.42391583       0.23125964       0.94181119      -0.60708754
I        8.42262745       0.35131145      12.73784351       0.12691613    -608.42461211      -0.44259859       0.07673279       0.36044804
I        0.19224942       1.86682832       6.48196840       0.13316903    -608.51992133      -0.08808302      -0.23588414      -0.06839365
I        6.71919394       8.45362759       7.15840197       0.13681686    -608.53292171      -0.70359786      -0.08866311       0.06441021
I       10.56824303       5.64551878       5.97983742       0.15281469    -608.59135202      -0.25265393       0.17046422      -0.47153145
I        4.16387367      12.61829472       6.20159817       0.11594168    -608.49653089       0.83972495       0.67072907       0.07249865
N        6.06030464       6.56536722       3.76063871      -0.05583431    -609.73610910      -0.48417827      -2.89969552       1.20621299
N       12.49392605      12.04794312       3.21946621      -0.14531270    -609.73722321       0.53106677      -0.59538570       1.86527339
N        0.83473331       6.72774601       8.70591164      -0.05344454    -609.72431977       1.17326477      -1.58085747      -3.48687392
N        5.48227978       0.29215857       9.77193356      -0.14598203    -609.80666338      -1.82586527      -0.48492882      -2.83244481
N        7.27931118       6.27770185       9.66309357      -0.13005339    -609.92644052       0.15015580       1.62435944      -1.00603123
N        0.52801085      -0.08952264       9.40125179      -0.07016513    -609.67248486      -3.41750779       1.46089260      -2.44152908
N       12.18727684       6.65331030       2.49096465      -0.14502044    -609.70701384      -0.85855943       0.77371360       3.34203938
N        6.98855639      12.22106743       3.41615343      -0.13179256    -609.75703555      -2.96377269      -0.81639550       2.87373057
C        5.87992144       6.05180645       9.92411423      -0.18255532    -609.30178431      -1.70748407      -1.15789762      -3.51099121
C       11.79383469      12.12048531       9.64802837      -0.12132408    -609.78420189      -0.32767525      -2.72723428       2.97509530
C        0.81700587       7.77408028       2.92107034      -0.11973079    -610.02793826      -1.32067935       0.43414943      -0.40693134
C        5.92468357       1.23302698       3.16982079      -0.11907060    -610.01510845       0.83050108       0.71162338       1.17682470
C        7.30411720       6.07447386       3.34758925      -0.11491275    -610.04238996       1.90385874      -0.62704579      -1.00308026
C        1.27638638      -0.22349888       3.28025460      -0.11995522    -609.97366691       0.00583846       1.07310069      -1.08842617
C       12.70951748       5.25758982       8.79640102      -0.11196699    -609.81129413      -0.38643032       3.59098932       1.34742694
C        7.33248520      12.42320919       9.67276382      -0.12032713    -610.07018013       0.08735061      -2.41690407      -0.22232117
H       13.41269875       4.66512871       9.32035351       0.07513055    -608.90935395       1.55036242      -1.14101313      -0.34692310
H        7.60051537      12.17601490       8.63816357       0.04303179    -609.19115562      -0.13571883      -0.43991040       0.17968845
H       11.94871712       5.24088192       9.60577583       0.07560160    -608.92938470      -0.46937023       0.24144492      -0.73236644
H        7.84722567      13.29996681       9.85067463       0.04076051    -609.18542274       0.79208515       2.21372568       0.70724040
H       -0.00929158       4.96329594       7.83789587       0.05194598    -609.04505913       0.29194471      -0.40638367       0.11502696
H        7.70567179      11.68035984      10.43173981       0.03417750    -609.19526417      -0.58425459       0.39213678      -1.01088739
H        0.31031519       8.74648476       2.91476917       0.03201332    -609.16436270      -0.34023779      -0.45388128       0.06578639
H        5.14755106       1.45980597       3.89335537       0.04422256    -609.19673819       0.12094172      -0.14292272       0.45844897
H        1.57003450       7.86175728       2.17103434       0.02761776    -609.23199841       0.89951358      -0.22225555      -0.25151188
H        5.41855574       1.00605762       2.28861952       0.04362633    -609.14092115      -0.88278798       0.60523374      -2.16324718
H       13.45936203       7.55143690       3.93032289       0.03324966    -609.19391865       0.30379263      -0.19340060      -0.12345860
H        6.68520117       2.08004880       3.14600968       0.03465746    -609.17267366      -1.02328731      -1.10439088      -0.16687566
H        6.42193270      15.69145298      11.03927612       0.20695670    -608.60291012      -0.59076346      -0.09158285       1.40173152
H        5.05154896      -0.00125073      10.64858532       0.00943521    -609.40304396      -0.14540623      -0.27859835       0.72266471
H        1.64738345       7.06240129       8.05685139       0.06877042    -609.20264387      -1.82554914      -1.58506157       0.95137680
H        5.12155342       1.27291334       9.58920383       0.01025222    -609.39088952       0.35700764      -0.38680033       0.15862651
H        0.96006089       7.25574684       9.50091362       0.06338955    -609.31798555      -0.14702534       0.84081603       2.70342610
H        4.95790339      -0.28363746       8.97002316       0.02417125    -609.33081711       1.07664989       0.99228077       1.84220151
H       12.75542545       5.85469103       2.36953950       0.00303149    -609.46555516       1.03792586      -1.51756376      -1.05565095
H        7.33854485      12.07006073       4.49899006       0.00727607    -609.39006696      -0.58249976       0.17880957      -1.96452337
H       -0.87087864       6.72746420       1.79406464       0.00965440    -609.39115456       0.34053188       0.44340886      -0.83937646
H        7.77349567      12.21011257       2.85324717       0.01168440    -609.47428753       2.49856771      -0.49424004      -1.68268884
H       11.65454388       6.35913372       3.35223126       0.00842063    -609.43367363       0.07189152       0.40675578      -0.17548914
H        6.30176497      11.43985271       3.09718204       0.01628212    -609.40890734       1.12909567       0.72487477       0.73951143
H       -0.87057263       3.25158548      14.90881062       0.25514707    -608.41413081      -0.32952831      -1.22987175      -1.51587715
H        7.28851557       7.04224014       8.83639240       0.01643980    -609.36470423       0.41453585      -0.92494623       0.78329644
H        7.88279009       6.68449736      10.43590546       0.01619305    -609.36935767      -0.72453499      -0.35812598      -0.41567476
H        1.59039974      12.18494511      10.11991882       0.06655425    -609.15904479       0.69494067      -0.71509806       0.99246619
H        0.51873529      -0.65799415       8.58303261       0.04646434    -609.22912720       2.04511470      -0.55413246      -0.47390540
H        7.64627790       5.36393738       9.34099102       0.00670915    -609.38655796       0.77598439       0.26256955      -0.07233087
H        5.09016895       6.58497143       9.31820107       0.07115543    -608.77042187       1.57708097       0.70743711       0.15322992
H       10.55679893       0.25672731       9.12699890       0.08705983    -609.01576412       0.40565443       0.96546698      -1.70393832
H        5.73768568       6.37259722      11.04215145      -0.11997448    -608.81207332       1.68666232       0.76524853       1.26280930
H       11.55874538      12.54045105      10.63384533       0.05144700    -609.04894095       0.09948398      -0.29593126       0.40512365
H        5.64850330       5.01171875       9.59638023       0.04271965    -608.88313400       0.08505726      -0.06647570       1.03189626
H       11.46932983      10.95732784       9.62936020       0.07971986    -609.00342426       0.37216559       1.96333744       0.37513608
H        7.59563351       6.35199308       2.26027846       0.06895553    -609.02490673      -0.47032959      -0.48366623       1.03706067
H        1.64888501      -1.19145763       3.44251633       0.03487432    -609.21338574       0.04093500      -1.81716094       0.18975880
H        7.36970997       4.96580172       3.52527785       0.05583145    -609.00313422      -0.25690136       0.75941611      -0.46932598
H        2.01292920      12.62602806       4.12255096       0.02546534    -609.24813589       0.07118095       0.93051715       0.48253097
H        8.22593784       6.39860010       3.91968608       0.07706857    -608.96933716      -0.55744935       0.28985103       0.00071175
H        1.72150707       0.08254237       2.33330774       0.02927971    -609.22799650      -0.18673441       0.44675007       0.01772293
H       11.95667744      12.88394451       3.09598827       0.01170760    -609.39061169       0.08515214       1.47996655      -0.33183875
H        5.46711588       5.78688669       4.21942806       0.05710706    -609.19546087       0.70302469       2.50671138      -0.89724630
H       12.22715473      11.69780445       4.17646503       0.00286589    -609.41878602      -0.29267463      -0.42745807      -0.47852831
H        5.01496410       6.14940548      -1.42738080       0.03865924    -608.51754840      -2.23773003      -0.58210620       1.49710205
H        5.75255489       7.47416306       3.45668054       0.04891459    -609.26229814      -0.55972970      -0.06699874       0.16140512
H       11.81262684      -0.87253612       2.48640251      -0.00219940    -609.45368984      -0.46165835      -0.99311259      -0.65044509
96
Lattice="12.299111366271973 0.0 0.0 0.397482693195343 12.292691230773926 0.0 0.0 0.0 12.580405235290527" Properties=species:S:1:pos:R:3:initial_charges:R:1:energies:R:1:forces:R:3 original_dataset_index=49 energy=-58460.34425659008 pbc="F F F"
Pb       9.78112888       9.11500549      12.39399624      -0.13241275    -606.89263599      -1.37634697       1.38613334       0.21651884
Pb       2.81773472       2.70957208      12.18189621      -0.15646948    -607.35509137      -0.20760450       1.10061904       1.63907405
Pb       3.84713650       8.80363464      12.66605663      -0.12983800    -607.08420914      -1.34850843       0.21946328       0.14567579
Pb       9.13730335       3.46241498      12.82022285      -0.16681597    -607.33835564      -0.28948264      -0.78774913      -0.34063030
Pb       9.69665337       9.05349159       6.29717827      -0.14087923    -607.15812631      -1.34148679      -0.70337615      -0.08408601
Pb       3.06132746       3.16204047       6.25235605      -0.14916730    -607.63361010      -0.26159187      -0.21206299      -0.34297381
Pb       9.32774162       2.71911049       6.26372194      -0.12058732    -607.03760523       0.62417191       1.19518828      -0.07316884
Pb       3.48312759       9.30730247       6.10634995      -0.13224234    -607.07185786      -0.91753272       0.27104699       1.06952171
I       10.25083733       8.59168148       9.31054020       0.11163752    -608.56095580       0.42016440       0.01341178       0.40460232
I        3.41387343       2.69209337       9.48440933       0.13032712    -608.58566586       0.43818613       0.03210081      -1.61680955
I        9.39568996       2.93184280       3.07937884       0.13629909    -608.46828853       0.79678825      -0.55863845       1.59233018
I        4.22070456       8.93092632       3.37209249       0.11668554    -608.60912031       0.08979896       0.15887442      -1.20407244
I        2.63075995       3.79380774       2.93577290       0.15360454    -608.42296012       0.19576406      -0.50464410       0.75250775
I        9.70437813       9.72559643       3.23834896       0.12877497    -608.49751037      -0.80988373      -0.44478974      -0.64763132
I        2.65495133       9.64867783       9.91307068       0.13180919    -608.40118035      -0.69358918      -0.44911462      -0.80945735
I        9.27405548       3.04852366       9.92876530       0.14312802    -608.44698706      -0.19715393       0.33178025      -1.44852971
I       -0.15887561       2.27750540      12.57050800       0.14480303    -608.47614635       0.02475550      -0.19285743      -0.23076311
I        6.60587645       8.47305298      12.31285667       0.12268465    -608.41483486       0.54947182      -0.03030878       0.07745000
I        9.80917549       6.32377672      -0.15117680       0.11975180    -608.47033910       0.72820469      -0.63874507       0.30597202
I        4.11367655      12.32664299       0.18584241       0.13923426    -608.68086791       0.41471486      -1.17881448       0.19419463
I       12.24966335      10.07050896       6.02815723       0.13695849    -608.50244959       1.52024931       0.51669038       0.02918262
I        6.14554882       4.14056110       6.13161230       0.14882012    -608.60874939       0.33109660      -0.23958198       0.77097448
I        2.60538268       6.18743181       6.31081820       0.13935131    -608.54147061      -0.08016448       0.93295702      -0.24242172
I        7.96358156       0.29658365       6.57022715       0.12562548    -608.41820899      -0.16861263      -1.11565885      -0.20122626
I       12.36852932      10.22948456      -0.31700248       0.11730602    -608.22859759       1.39133314      -0.16798312       1.01216107
I        6.15251732       3.83678365       0.18939181       0.15609945    -608.57856643      -0.52355757       0.07425216       0.17024285
I        2.38447475       6.02536488      12.72606277       0.14480925    -608.40774404       0.35125102       0.50259872      -0.66216152
I        8.36358833       0.35958833      12.50785637       0.15996900    -608.50331634       0.12392262      -0.51369034       0.19971975
I        0.32814488       1.58397520       6.72654581       0.15890993    -608.54713455      -0.35875850       0.25391098      -0.18270770
I        6.14324570       8.46460152       6.56958103       0.14444891    -608.47764710       1.09014872      -0.21034879       0.49570434
I       10.48457813       6.02237177       6.14406538       0.14492363    -608.62364108      -0.27577565       0.38291865      -0.57167087
I        4.77855968      12.71670341       6.27042198       0.14647046    -608.41472661      -0.38687230      -0.91292629      -0.19997552
N        5.77510118       5.83275652       3.16687846      -0.14357759    -609.71633593      -1.27570234       1.98924862      -1.65097936
N       11.94897652      11.88408947       2.74137855      -0.14760412    -609.74469961       1.00710461      -1.40465783      -2.29364313
N        0.80942553       6.32333851       9.26346207      -0.06273202    -609.73107459       3.48831572       3.66630966       0.26158851
N        5.96315813      -0.01871699       9.52721500      -0.14054118    -609.68356739      -1.76732485      -1.55123478       2.47828163
N        7.83970213       6.03567076       9.01675797      -0.13340819    -609.76444130       0.29423326       2.72630856      -1.55447925
N       -0.69793117      -0.24133071       9.73649788      -0.15499993    -609.71257767      -1.15230183      -5.08750178      -2.03603330
N       12.67931271       6.41607618       2.79475784      -0.14630155    -609.73381757       0.34765769       1.14594678      -0.76548631
N        6.75921106      11.50842190       2.57899761      -0.13610123    -609.74587959       4.74345152      -0.63868785      -0.68115954
C        6.62250996       5.94283819       9.82509422      -0.11799812    -610.05265351       0.72469211       1.82781912      -0.05130351
C       10.73488522      12.23029804       9.10276222      -0.13065721    -609.96281925      -5.83791559       0.98913019      -2.42450949
C        0.55458373       7.89208364       2.57097721      -0.12115271    -610.02954914      -1.28172072      -0.02794054       1.11732067
C        6.63450813       0.64864999       2.98347259      -0.11132683    -610.00596516      -3.24579906      -1.09902457       3.26074186
C        7.19580364       5.47601032       3.36866117      -0.12027454    -609.97301005      -0.26638034       1.77274081       1.65878136
C        0.55292600       0.27087253       2.84656477      -0.10815071    -610.05106053      -0.28379499       1.62190775      -0.55281964
C       12.49743080       5.12958288       9.02994251      -0.11594037    -609.96025347      -1.83487697      -3.03521182      -1.54716537
C        7.18443251      11.03641605       9.64265251      -0.12404006    -610.02745162      -0.08746966       1.46477111      -2.69908879
H       11.67221451       5.29180336       8.28698730       0.05918125    -609.02015625       0.37818887      -0.29958330       0.70680808
H        6.54900169      10.22721958       9.79420948       0.03536340    -609.15988793      -0.94075638      -1.57390851       0.15447573
H       13.11430073       4.31407213       8.57245445       0.07425345    -608.94536130       0.10615338       0.21987671      -0.01754059
H        7.76846123      11.01297092       8.69224834       0.03708326    -609.15341462      -0.37334446      -0.48737802       0.68738219
H       -0.23366956       4.63987064       9.90593147       0.05973328    -609.06315718      -0.09146656       0.28755373       0.37501165
H        7.78090239      11.25748348      10.44885826       0.02906469    -609.18171018       1.76190348      -0.12953926       1.97090882
H       -0.23704225       8.16031837       1.87171435       0.02739289    -609.19641338       0.06856673       0.14554141      -0.07951620
H        7.55184126       0.77824533       3.54050469       0.04450117    -609.16974833       0.42969687      -0.38097518      -0.29517952
H        1.49234998       8.14305687       2.12057543       0.01883672    -609.21782512       0.73667943      -0.09400962       0.08053260
H        5.78695154       0.79980820       3.81220937       0.06515554    -609.12901186       1.57196791       0.23194756      -1.58546647
H       12.63009453       8.40099049       3.54067612       0.03470206    -609.21521607       0.48880679      -0.18954883      -0.59041057
H        6.49720240       1.35591519       2.20799804       0.04138441    -609.20219604      -0.05658535       0.40446577      -1.03678134
H       12.74815559       8.83941650      10.01523113       0.26469398    -608.22493754       0.68218895      -0.09480636      -0.14240366
H        5.53780460       0.22364029      10.46766281       0.00656410    -609.43912337       0.50983944      -0.01199528      -0.61098908
H        1.70301199       6.24756432       9.76445580       0.04716727    -609.26563285      -0.53642254      -0.38128831       1.17957781
H        6.55119038       0.70782053       9.23075485       0.00063628    -609.43356271       0.76618228       1.86372445      -0.90935757
H        1.31594157       6.71261406       8.43266392       0.04601167    -609.27131747      -1.47492752      -0.18863159      -0.18988370
H        5.14861727      -0.18121646       8.94399834       0.00383739    -609.42178369      -0.20105676       0.41142034      -0.99786561
H       12.59177208       6.12960911       3.73387909       0.01037019    -609.43967239      -0.24878189      -0.07381847       2.19595871
H        6.17660141      10.93834972       3.14329004       0.02014109    -609.39952405      -1.02735874      -0.38926513       1.49796413
H        1.14231253       5.81539059       2.45451355       0.00422527    -609.39264733       0.48468361      -0.27396735      -0.68275394
H        7.77718067      10.90808868       2.52924252       0.03508967    -609.29820249      -2.27983302       1.37612649       0.34468751
H       11.81279182       6.20664644       2.34613824       0.00785183    -609.42427102      -0.89080715      -0.93630903      -0.68750108
H        6.40514708      11.37596130       1.65436506       0.01358331    -609.43918693      -0.47544991       0.50083855      -1.35452046
H       -0.44063401       0.59663010      10.09220123       0.01341828    -609.33235910       1.82742827       3.40332183       2.07187054
H        8.34093285       7.09241199       9.10445499       0.03716638    -609.26849654      -0.98553027      -2.84639867      -0.58621641
H        8.50959110       5.31856966       9.26786232       0.00487828    -609.45106090       0.90997350      -0.63026872       0.90226932
H       -0.25837159      11.16194725      10.39458656      -0.00054721    -609.23702890      -0.44920497       1.84443434       0.09283332
H       -0.05084157      -0.62927896       9.02934933       0.01267865    -609.29889617       0.35093499       0.97260359      -0.31423478
H        7.63697720       5.70840597       8.02600670       0.01277429    -609.39939148       0.00352937       1.09427426       0.50958565
H        5.91189909       6.72960949       9.61702442       0.04289098    -609.18841309      -0.05666178       0.42001963      -0.41427990
H       10.22486210       0.76693571       8.31465435       0.04121739    -609.11207124       1.41075065      -1.26462939       0.83227159
H        6.89041281       6.00013208      10.84533691       0.02921216    -609.23925217       0.30265723       0.02073822       1.16046739
H        9.72469521      12.58435059       9.60835171       0.08110134    -608.98968421       2.54827626      -0.56204105       0.89672251
H        6.19085979       5.04034805       9.64370441       0.04104119    -609.19842440      -1.38898385      -2.76584719      -0.50803920
H       10.22978020      11.34365749       8.63562012       0.05330414    -609.08505059       1.55144297       0.19596207       0.17670803
H        7.58625460       5.52719736       2.40622115       0.04039348    -609.20721149       1.16040781       0.06129805      -1.75956068
H        0.49136394       1.38210702       2.95456719       0.03534376    -609.22280433      -0.25906687      -0.82640776      -0.27461491
H        7.40860462       4.48224163       3.80559397       0.03846230    -609.09360002      -0.55719161       0.82764239      -0.14003309
H        1.49419904      12.28848553       1.95273495       0.03027445    -609.25186159       0.34323844       0.12040721      -0.31801480
H        7.57232857       6.37243748       3.96612310       0.05169598    -609.16645891       0.17765496      -1.52169220      -0.37342349
H        1.04248714      -0.10113935       3.69477320       0.04129727    -609.20566400       0.79771579      -0.60596782       1.42820526
H       12.13439274      10.84806156       2.85482097       0.00875301    -609.34385349      -0.63859207       1.10089688       0.00820196
H        5.07250309       5.41466045       3.73519588       0.01195536    -609.43015325      -0.63710399      -1.21388705       1.32193445
H       11.51656437      11.98247433       1.77852619       0.00180849    -609.42528675       0.51254482       0.04876907       0.59397213
H        5.39747953       5.63960791       2.18592453       0.01406301    -609.42700744       0.80658948      -0.01339693       0.76052233
H        5.57219267       6.88461876       3.35232282       0.02089716    -609.37688034       0.46603626      -1.29748764      -0.44107947
H       10.81742477      -0.16847710       3.35276937       0.00877474    -609.37246637      -1.01018122       0.63060735       1.62320094
96
Lattice="12.299111366271973 0.0 0.0 0.397482693195343 12.292691230773926 0.0 0.0 0.0 12.580405235290527" Properties=species:S:1:pos:R:3:initial_charges:R:1:energies:R:1:forces:R:3 original_dataset_index=51 energy=-58460.9247368258 pbc="F F F"
Pb       9.78595543       9.11966705      12.38910961      -0.13335606    -606.89947403      -1.20161116       1.34773160       0.09221073
Pb       2.80124927       2.70142365      12.17815113      -0.15377750    -607.34367108      -0.11642314       1.07193382       1.38201125
Pb       3.85979605       8.78848743      12.66812515      -0.11915466    -606.88648845      -1.08603885       0.07379808       0.72041776
Pb       9.12772369       3.47440028      12.82877541      -0.16478623    -607.31116261      -0.29057710      -0.78671870      -0.25991376
Pb       9.69588566       9.04307747       6.29493141      -0.14102718    -607.18791248      -1.30256895      -0.67858612       0.00176936
Pb       3.05576682       3.16503096       6.24815702      -0.14768687    -607.61613982      -0.19699759      -0.15428627      -0.30433223
Pb       9.33070469       2.71199059       6.26140070      -0.12108263    -607.05245589       0.55336590       1.10329419      -0.08469172
Pb       3.48276305       9.31324577       6.10608101      -0.13203792    -607.06228563      -0.88525474       0.17646049       0.75219715
I       10.26168060       8.59289265       9.30611038       0.13191269    -608.63984653      -0.14283394      -0.13526112       0.32933113
I        3.41698360       2.69950318       9.46322250       0.13214536    -608.58045170       0.39166460       0.06631225      -1.35856055
I        9.38517761       2.93222070       3.09672070       0.13699202    -608.45435734       0.70686381      -0.51391742       1.52048790
I        4.23539829       8.93241692       3.37135696       0.11915861    -608.60757876       0.02462747       0.24197561      -1.21044506
I        2.62235022       3.79455042       2.93585801       0.15050887    -608.44277607       0.24781995      -0.49525496       0.70471245
I        9.71358013       9.71648026       3.23837805       0.13228442    -608.53143322      -0.73293717      -0.38385028      -0.61860909
I        2.64996600       9.65451813       9.92622662       0.08919051    -608.36429999       5.50743711       2.45398411      -2.61794016
I        9.28990364       3.04303122       9.93062687       0.13863958    -608.47928156      -0.17670849       0.33689818      -1.39451749
I       -0.16923419       2.27853251      12.57563782       0.13861366    -608.52426148       0.01896377      -0.28791327      -0.32870841
I        6.61550522       8.47837830      12.31418324       0.11960228    -608.40034255       0.37187452      -0.01065517       0.10280729
I        9.79654884       6.32779121      -0.16471003       0.11786823    -608.51495681       0.75291758      -0.61350711       0.28707108
I        4.10880184      12.31618023       0.18644087       0.13905481    -608.68859295       0.40618082      -1.24577823       0.18657234
I       12.25003529      10.07489109       6.02930975       0.13868219    -608.49515758       1.50974893       0.52991513       0.04251422
I        6.14638615       4.14624977       6.14326477       0.15149687    -608.60651132       0.24161363      -0.29149303       0.70119399
I        2.61238980       6.19981146       6.30080366       0.13962123    -608.53238630      -0.07267651       0.92716061      -0.25103649
I        7.94437170       0.29534087       6.56955814       0.12734713    -608.45315169      -0.08242300      -1.02057081      -0.22658595
I       12.36846924      10.23518181      -0.33523729       0.12386180    -608.25143972       1.22894104      -0.04879516       1.48512095
I        6.14016104       3.82942390       0.18485942       0.15488513    -608.58413938      -0.55434444       0.11768740       0.19861202
I        2.38529921       6.02547169      12.73458576       0.14066143    -608.42272875       0.31077124       0.53327389      -0.65090349
I        8.36524105       0.36942461      12.51795769       0.15905963    -608.50519037       0.12180621      -0.52079582       0.11843146
I        0.33160570       1.56100035       6.73247766       0.15479742    -608.55151644      -0.35498287       0.24046067      -0.19314519
I        6.13920641       8.46830368       6.57509470       0.14390334    -608.47480003       1.08548757      -0.18851122       0.52220612
I       10.48902702       6.02440882       6.14254284       0.14243425    -608.64662822      -0.21866430       0.31521373      -0.53583934
I        4.79532385      12.72577667       6.27789450       0.14360635    -608.41706461      -0.41319274      -0.95194024      -0.13452690
N        5.76904964       5.85006189       3.13698435      -0.14830388    -609.72171217      -3.11361032      -1.52819465      -0.97407539
N       11.94823170      11.93730354       2.71847367      -0.14923364    -609.77583477      -0.31033797       0.90408752       1.42001647
N        0.87186641       6.31217003       9.26977539      -0.06075127    -609.74360569       3.43881983       0.85430413       1.28718451
N        5.93464327      -0.04511100       9.55706787      -0.13922605    -609.81822742      -0.87718416       0.80424539      -2.50147537
N        7.84212780       6.01177979       8.96115398      -0.13707177    -609.79937788       3.46325002       0.17335318       2.87293563
N       -0.73142999      -0.24580641       9.72395992      -0.14478084    -609.78694743       1.24281167       1.84511309       0.87577079
N       12.66832066       6.45017624       2.82456207      -0.14478424    -609.78980652      -1.29584359      -1.37408712      -0.41977902
N        6.77418947      11.51933956       2.53638959      -0.14040516    -609.71488224      -0.07176189      -2.70677122       0.33736749
C        6.66721582       5.93036413       9.81859970      -0.11181330    -610.05898857      -1.98154228       0.16484849      -0.89195383
C       10.70401287      12.18143559       9.08475304      -0.12869595    -610.08629319      -1.47137812      -0.33810187      -2.93353906
C        0.53760511       7.91066599       2.57316852      -0.12252791    -610.05357288       0.50009083      -0.02383397      -1.12618855
C        6.57614851       0.63341528       3.01990390      -0.11213948    -610.04355143       2.22948720      -0.94086169      -1.47064236
C        7.17121410       5.52693510       3.42303658      -0.12390661    -609.98207187       0.85408655       0.82541571      -3.18127957
C        0.55998802       0.29036635       2.85253859      -0.10566789    -610.04344524       2.99860571       0.53987378       1.40182974
C       12.52025223       5.10092163       9.04718494      -0.11556482    -609.92290160      -1.28688580      -3.40528134      -0.21258261
C        7.16248608      11.07204819       9.60771084      -0.11890349    -610.08715608       1.82718441      -3.07998240       0.16625411
H       11.73789978       5.26543570       8.32151604       0.05694339    -609.03394374      -0.72240687      -0.17326066       0.09580785
H        6.56958818      10.08524513       9.67947483       0.05126274    -609.14605039       0.57553404       1.58098987       0.16260653
H       13.00500393       4.10138416       8.64945698       0.08755856    -608.98708616       0.25470619       1.80094818       0.17711555
H        7.80396318      10.93495083       8.68439102       0.05374153    -609.12770026      -0.76534094       0.44275504       0.90104071
H       -0.16482137       4.67871284      10.01671505       0.07193293    -609.02862153      -0.17843055       0.65502356      -0.54407255
H        7.85008335      11.20243168      10.51457024       0.04276436    -609.20322288      -0.80706065      -0.40838500      -1.13634617
H       -0.26406166       8.15280342       1.87969911       0.03561503    -609.17986648      -0.01726132       0.25574053      -0.12552191
H        7.52411127       0.64018840       3.60931277       0.04451877    -609.17132757      -0.44729996      -0.05982907      -0.61429745
H        1.48420453       8.19486427       2.03722739       0.02677365    -609.20923123      -0.56775089      -0.57772810       0.95106397
H        5.83425999       0.72126168       3.73045564       0.04548095    -609.18107307      -1.96939271       1.24087661       1.20327750
H       12.63228321       8.44584751       3.46685266       0.03354034    -609.23809026       0.24705831       0.57775154       0.99602396
H        6.68094635       1.31021595       2.14465952       0.03124091    -609.18531861      -0.52250172      -0.19455542       0.73721450
H       13.68086529       9.08965206      10.28827477       0.24353828    -608.55837374      -5.18323222      -2.60151340       1.42953628
H        5.62773228       0.10928511      10.51846790       0.00447220    -609.41069011      -0.56829252       0.69227693       0.24164384
H        1.74715436       6.01722431       9.77385998       0.04485752    -609.30403872      -0.73901588       0.83801132       0.12456927
H        6.57039738       0.77187902       9.19216156       0.02246835    -609.31638277      -1.65923854      -1.14083696       0.66174994
H        1.31252980       6.76867437       8.45524120       0.05200593    -609.26689281      -0.73686506      -0.48130364      -0.24798997
H        5.05526495      -0.22904213       8.85312080       0.03525333    -609.24041218       2.06553913       1.15093582       1.46772686
H       12.47393417       6.09759140       3.83171844       0.02373281    -609.34720267       0.56107058       0.85743295      -1.41932313
H        6.18526936      10.94632339       3.21855569       0.01695191    -609.41792360       0.53610637       0.83048000      -0.59518129
H        1.08055055       5.81280088       2.31957102       0.01466399    -609.36188924      -0.21664507       0.69051034       0.89326897
H        7.67521191      10.95591927       2.50493288       0.00374772    -609.46971319      -0.36084518       0.65651373       0.07446812
H       11.79230022       6.28381443       2.26412320       0.01602815    -609.37403395       0.52346499      -0.62694710       0.80005508
H        6.32152605      11.28075504       1.61414683       0.02154005    -609.40152670       0.21681131       1.20969511       0.47469628
H       -0.41031617       0.66771752      10.27138615       0.02862705    -609.29857598      -0.42345081      -1.51794907      -1.26150435
H        8.35368156       6.93708515       9.06560898       0.01356968    -609.44262737      -0.37222011      -0.70800731      -0.39865592
H        8.57323742       5.25421572       9.45056820       0.03687122    -609.35432550      -1.30252167       1.21229703      -1.42737479
H       -0.39653409      11.33875561      10.48097324      -0.02047916    -609.39924598       0.09989858      -0.12080378      -0.04824594
H       -0.05915445      -0.55676669       9.01127434       0.00440313    -609.41056129       0.49817404       0.32628249       0.21602468
H        7.77616167       5.74792814       8.00531101       0.01314492    -609.46358686      -0.56627237      -0.28399464      -1.45948025
H        5.89988232       6.79442930       9.54951000       0.06345630    -609.08761305       1.44918644      -1.66840358       0.57214859
H       10.30139542       0.61601728       8.25792694       0.02307118    -609.11882809       0.73758265      -0.20426861       0.22629803
H        7.07196712       6.01916409      10.86871719       0.04245887    -609.16334108      -0.95266581      -0.36075101      -0.96813557
H        9.94789791      12.58445358       9.69843388       0.03331265    -609.15107760      -0.83938396      -0.08372617       1.29315668
H        6.23214722       4.91776752       9.50184441       0.05296491    -609.15700328       0.09470194       1.25350741       1.16265509
H       10.40185261      11.21942234       8.57397270       0.03462617    -609.17068273       0.34938334       0.81313604       0.92538713
H        7.60811806       5.43588781       2.37815213       0.04685117    -609.16896613       0.08957218       0.62216477       1.08512415
H        0.59879512       1.40541029       2.96375704       0.04794038    -609.18286616      -0.70419845      -0.85029505      -0.31368252
H        7.50074244       4.63632441       3.88063598       0.04728886    -609.06154203      -0.79344799      -1.22962100       0.64826509
H        1.53986526      12.30258751       1.90050423       0.04797649    -609.21431642      -0.61457171       0.31854983       1.38728549
H        7.56038380       6.34906197       3.99639058       0.04305799    -609.21424330       0.44946605       0.47207936       0.06886278
H        1.11202085      -0.07999082       3.82587743       0.06201002    -609.14274445      -1.05282002       0.31601303      -1.82424149
H       12.14055824      10.96811199       2.78743792       0.00779175    -609.36667212       0.07086078      -1.68619149      -0.16991923
H        4.98103714       5.32934999       3.62896776       0.02199052    -609.30229489       1.10841860       0.36853396       0.69177760
H       11.65397072      12.10898876       1.76987195      -0.00121684    -609.45063783      -1.06224972       0.23774568      -0.77921589
H        5.31611347       5.59836006       2.14472151       0.03788794    -609.25472115       1.97444876       0.68228413       1.21113827
H        5.65628195       6.84695625       3.34305000       0.01030089    -609.39920943      -0.63361323       0.22512359      -0.23806197
H       10.76575470      -0.27679992       3.44310760       0.02486541    -609.25915192       1.07936895       0.72832074      -0.93649270
96
Lattice="12.299111366271973 0.0 0.0 0.397482693195343 12.292691230773926 0.0 0.0 0.0 12.580405235290527" Properties=species:S:1:pos:R:3:initial_charges:R:1:energies:R:1:forces:R:3 original_dataset_index=181 energy=-58453.178457914255 pbc="F F F"
Pb      10.07434177       9.97165966      12.28613377      -0.12875456    -607.17075806      -0.33367863      -0.80046254      -0.28920346
Pb       2.56076002       2.76104951      12.23610401      -0.13452724    -607.12211628      -1.31650511      -1.31413462       0.20183004
Pb       3.75420475       8.75697041      12.49241257      -0.11612044    -607.13216609       0.26238848       0.46915042       0.31282793
Pb       8.47750092       3.48818684      13.04308033      -0.11661622    -606.91900368       1.04872894       0.43558215      -1.03683937
Pb       9.41282940       8.76586151       6.07127142      -0.14319386    -607.56265260       0.44528894      -0.30953169       0.25578614
Pb       2.81259990       3.22271371       6.03363705      -0.12745140    -607.23017827       0.31509454       0.97348743      -0.02272971
Pb       9.51965332       2.56429648       6.78804827      -0.14170681    -607.44120446      -0.67614402       0.65201018      -0.48215566
Pb       3.35849547       9.85785294       6.47329760      -0.13999201    -607.11538361       0.10349992      -1.40689700      -1.28346191
I       10.29451561       8.37782764       9.08904648       0.15098156    -608.55849506      -0.33125089       0.26795498       0.24461640
I        3.62721395       3.27796030       9.58148003       0.12657335    -608.52970527       0.00858920      -0.14413873      -0.97891541
I        9.12305641       2.75236726       3.22940302       0.09075353    -608.25732841       0.88308419       0.06216277       1.08053251
I        4.57003689       9.40986252       3.05218935       0.15207684    -608.54044080      -0.52727500       0.60687888      -0.29543486
I        2.25594401       3.35959220       2.93677020       0.14652982    -608.43050531       0.24408280      -0.02572117       0.41987450
I        9.69441795       9.19540977       2.67994285       0.14049551    -608.58224113      -0.22366158       0.30897628       0.04032296
I        3.46316695       9.58160019       9.29868603       0.11672127    -608.54506493       0.04765907      -0.16805474       1.33441731
I        9.42240524       3.22928333       9.65505695       0.13031276    -608.67270648      -0.28726492       0.37371825       0.73168174
I       -0.66134274       2.19363832      13.01607704       0.13440581    -608.28922689       0.13521246       0.17661630       0.51342294
I        6.72110415       8.46446896      12.48865604       0.13168809    -608.51815319       0.25007745      -0.26032099      -0.45551632
I       10.26580048       6.01255178      -0.14148089       0.14437020    -608.54457768      -0.33454967       0.05080812      -0.24394672
I        3.88543010      12.04045963       0.11057215       0.13622212    -608.51636974       0.47089962       0.15289700      -0.18445109
I       12.72210693       9.77316284       5.86537027       0.14021051    -608.58212254      -0.36208798       0.32209794       0.24272384
I        6.56545401       3.87087393       6.45278120       0.16983341    -608.48817372      -0.09978113      -0.34784072      -0.11038032
I        2.88637877       6.59492159       5.81698656       0.15775554    -608.54898822       0.21812023      -0.42761550       0.12854366
I        8.34512138      -0.37970558       6.13162899       0.13353050    -608.55318802       0.34380951       0.00519996       0.18518349
I       12.96014023      10.22529697       0.21642812       0.12942480    -608.57710486       0.11431901      -0.05533683      -0.17847935
I        5.40725136       3.54117513       0.21820337       0.05993304    -607.93439766       0.82744562       0.03571251      -0.39439373
I        2.13465619       5.72362280      12.69603157       0.08979518    -608.21607000       0.79830139       1.08583553      -0.44421336
I        8.39938927       0.37242046      12.75281811       0.12875590    -608.41976219      -0.48208794      -0.10784801       0.16146237
I        0.16039009       1.91156614       6.46471453       0.13327636    -608.55115045       0.06233286      -0.23440209      -0.03483226
I        6.70372915       8.44843292       7.17317629       0.13892426    -608.43583748      -0.08741472       0.19571735      -0.16161483
I       10.55853844       5.62587500       5.96640587       0.15420498    -608.60897423      -0.27277768       0.15002215      -0.46213985
I        4.15141630      12.63688278       6.18136311       0.11941934    -608.50676681       0.72433139       0.47831775       0.10616631
N        6.08673143       6.65598297       3.96021700      -0.05181005    -609.75054182      -0.28059982      -0.57613646       0.08211897
N       12.47976303      12.03693581       3.18654132      -0.14322735    -609.78855433      -0.20003370       0.85443328      -1.73203410
N        0.80288577       6.72110033       8.67216301      -0.05884932    -609.76692048      -0.39966736       1.79672922       3.19303262
N        5.48809052       0.24178846       9.73779583      -0.14300452    -609.76963481       0.49320699       1.87058087       1.41842375
N        7.29223824       6.30040836       9.66972637      -0.27537811    -608.44915882      -1.25645033      -2.03288448      -2.90479426
N        0.56345654      -0.09000449       9.40470695      -0.06176756    -609.75130109       2.13996023      -0.53096419       1.43812768
N       12.12348557       6.58486891       2.57660079      -0.14221679    -609.75028884       0.14002147      -0.25428694      -1.85062268
N        6.95380735      12.26292038       3.39543533      -0.13552624    -609.81709223       0.93848127       0.21511384      -1.54094015
C        5.92360306       6.08616638       9.35850811      -0.03483339    -609.61199593       2.25664685       0.12757014       1.18285362
C       11.85047531      12.15042400       9.70241451      -0.11490376    -609.93547269       1.58517978       2.40723862      -0.69195445
C        0.72431046       7.68282938       2.94905043      -0.11645640    -610.06796690       1.73764596      -0.95353776       1.56509149
C        5.87226677       1.26120722       3.15052891      -0.11367624    -610.04136602       0.32480272       0.94824541      -0.49540192
C        7.30773830       6.11033583       3.38273692      -0.11077179    -609.96516050      -0.10378985      -0.08579705       0.85655803
C        1.26653743      -0.18778268       3.34702253      -0.11403978    -610.05693867      -0.38739133      -1.48796201       0.45041639
C       12.72388363       5.40486097       8.78213310      -0.11732019    -609.97282536      -2.45135206      -1.74933307      -1.26076386
C        7.37642813      12.46284008       9.55979824      -0.12025606    -610.04480153      -1.37421723       1.10813212       0.05027316
H       13.46562958       4.67359066       9.02684689       0.06931335    -608.88543841       0.99924162      -0.63318131       0.97667820
H        7.54332972      12.39836121       8.50466919       0.03575597    -609.18159181       0.33608561      -0.08923291      -0.70832473
H       11.78065681       5.25650883       9.37827873       0.06080591    -609.03098695       0.86429234       0.16035843       0.02416238
H        7.80828047      13.38249207       9.97644806       0.02703021    -609.23676288      -0.01254960      -0.25358353      -0.09994888
H        0.09884290       4.98515844       7.78009081       0.06468584    -608.97218494       0.27762601       0.66527211       0.55255039
H        7.70060921      11.60816669      10.07430172       0.03597575    -609.16845402       0.76097127      -1.23684530       0.60283818
H        0.09191088       8.50199509       3.24780893       0.03046048    -609.18381753      -0.04066304       0.50382018      -0.07480509
H        5.28056955       1.50960433       4.03436613       0.03852779    -609.19935934      -0.22248944      -0.12871284      -0.13794496
H        1.46767080       7.94476223       2.17310143       0.03488567    -609.19895805      -0.62307090      -0.17801004       0.21638946
H        5.25478506       1.26694822       2.21813202       0.03517020    -609.20155447       0.47491829      -0.33485382       0.72944182
H       13.59405041       7.29827213       3.87643361       0.04471482    -609.17892789      -0.59825269       0.67038497      -1.17686915
H        6.67385149       2.03508472       3.09253430       0.03891860    -609.15912899      -0.74391568      -0.41370737      -0.09976824
H        6.24976492      14.90319824      11.24192333       0.20550251    -608.48455965      -0.28834813       0.63645901       0.79944151
H        5.15182686       0.04805172      10.71798897       0.00470146    -609.42756244       0.31874712       0.21692044      -0.20240358
H        1.23544323       7.06316805       7.87319565       0.04728933    -609.33103507       1.00539375       0.59001256      -1.66143084
H        5.15952253       1.23528910       9.52054119       0.00773318    -609.40166443      -0.09582987      -1.06779444      -0.04365572
H        0.87038785       7.32166100       9.53082085       0.05220705    -609.21870392      -0.03477574      -0.91969489      -1.34695030
H        4.98957014      -0.43137398       9.20710182       0.00610538    -609.45529242      -0.79872561      -0.98070443      -1.28265481
H       12.59775829       5.73872852       2.17545724       0.01441681    -609.35874877      -0.09754033       0.34339509       0.98068174
H        7.21497250      12.20473862       4.37660074      -0.00340706    -609.48478474       0.06603084      -0.27924949       1.01349026
H       -0.81060451       6.83872795       1.78705966      -0.00090449    -609.39539969      -0.01586609       0.17683439       0.14491182
H        7.90291357      12.17558765       2.90520740       0.01794603    -609.42267293      -1.42894494       0.06952955       0.17058799
H       11.50340939       6.38015127       3.35098457       0.00285086    -609.46604082      -0.28378513      -0.70057516       0.84653442
H        6.35659504      11.46539688       3.14318538       0.00756184    -609.45962210      -0.15809175      -0.47439196      -0.04934746
H       -1.51901209       2.53409910      14.95236397       0.17053007    -608.89307003      -0.10195615      -0.09524084      -0.69137621
H        7.63662434       6.97591496       8.88169956       0.04144685    -608.52418275      -0.03146055       0.28174435       0.05988793
H        7.81574249       6.98149204      10.55441666       0.02292053    -608.30238452      -0.15174554       0.96170993       1.12733164
H        1.48626578      11.89836502      10.24106121       0.03779912    -609.37747290       0.00513785       0.11973965      -0.54291891
H        0.99477243      -0.59653711       8.60703850       0.04838429    -609.31487017      -1.17622404       0.26139910       0.55176693
H        8.00096035       5.45575523       9.71039772       0.03717219    -608.63603838      -0.43345781       0.23521353      -1.00122343
H        5.50714684       6.90027714       8.87058163       0.07976022    -608.99879868      -0.85588036       0.85834570      -0.79470261
H       11.09149456       0.34325409       8.83357620       0.05131679    -609.00440999      -1.63239462       0.42225793      -0.89199645
H        7.48727369       6.18575382      10.93046474       0.04677089    -608.51491527       0.99145489       0.39982779       2.48973935
H       11.64607811      12.80772305      10.55243111       0.04801137    -609.07541883       0.02035973       0.02061360       0.07924261
H        5.58420610       5.09392595       9.33677483       0.07997101    -609.02668119      -0.47383997      -0.82131267       0.11962439
H       11.39916229      11.23707485       9.84977531       0.05469276    -608.99585558      -1.07751366      -2.59855116       0.21638475
H        7.39001703       6.36649895       2.33273911       0.06383348    -609.00199925       0.27225433       0.39174823      -0.57729921
H        1.61590171      -1.26341534       3.28914642       0.03516009    -609.20864306      -0.05524290       1.18014510       0.18896151
H        7.26805830       5.01858425       3.41167855       0.05811271    -608.99158956       0.25482244      -0.24409985       0.24721334
H        1.87215102      12.56532097       4.32475424       0.02991856    -609.24212467       0.05198938      -0.22538675      -0.34797852
H        8.24131775       6.45674849       3.93116117       0.05601047    -609.08866333      -0.76943236      -0.39661574      -0.49609404
H        1.66948342       0.38838610       2.53913355       0.03288259    -609.23267980       0.31551258       0.32830888      -0.44910536
H       12.04391384      12.98004627       3.08524609       0.00792895    -609.44861295       0.30262927      -0.50633780       0.43385352
H        5.34857321       6.00504541       4.28171539       0.05500618    -609.29459686       0.88725276       0.15519381      -0.05068336
H       12.07385635      11.48790836       3.93199086       0.00229862    -609.45058888      -0.46937280      -0.34718868       0.93721394
H        4.01450634       5.57641220       0.19645500       0.20937134    -608.73515179      -1.11759918       0.10788275       0.11926739
H        5.62488127       7.31350279       3.34896755       0.04714625    -609.33697245       0.08899889       0.19657462      -0.08512198
H       11.83465195      -0.74225831       2.27982879       0.00758508    -609.43699910       0.36401855       0.11359637       0.52333847
96
Lattice="12.299111366271973 0.0 0.0 0.397482693195343 12.292691230773926 0.0 0.0 0.0 12.580405235290527" Properties=species:S:1:pos:R:3:initial_charges:R:1:energies:R:1:forces:R:3 original_dataset_index=437 energy=-58451.47096869882 pbc="F F F"
Pb       9.57377338       9.29506207      12.60603714      -0.12641814    -607.29842224       0.36711046      -0.62039494       0.16067010
Pb       2.88120270       2.96498036      12.40530300      -0.13702911    -607.45291549       0.89655465       0.88918728      -0.29187368
Pb       3.51774478       8.99936008      12.69520092      -0.13901238    -607.39019744      -0.16363553      -0.30460196      -0.74554710
Pb       8.46934891       3.19951510      12.75514793      -0.12492121    -607.21623914       0.12817443       0.76385901      -0.07747436
Pb      10.35911942       8.94987488       6.09703398      -0.12134423    -607.07098240      -0.63022501       0.24675256       0.19667572
Pb       2.93305206       3.07213306       6.31573868      -0.13991036    -607.42036108      -0.01324994       0.20745619       0.28332624
Pb       9.13980293       2.73587847       6.45328569      -0.14379616    -607.47131595       0.43712771       0.01840053       0.11370103
Pb       3.19893646       9.21941662       6.26784706      -0.12349699    -606.56651360       0.18721767       0.40530836      -1.16966012
I        9.17942619       8.78524971       9.36746597       0.08699330    -608.10673285       0.56559413       0.48408015      -0.62009764
I        3.86412573       3.11892128       9.40830040       0.13038214    -608.54242038      -0.51792092      -0.13495741       0.28221385
I        9.44815445       2.87338901       3.27309704       0.13048807    -608.64053425       0.44229991      -0.06690922      -0.10860219
I        3.97631788       8.91876030       3.03427577       0.12852015    -608.52302003       0.06965559       0.34687261       0.18692749
I        2.42815542       2.97112370       3.14138985       0.11319042    -608.44220172       0.08556600      -0.14614773      -0.04759275
I        9.66343212       9.36214256       3.06994295       0.12297306    -608.56182133      -0.19819092      -0.01027345      -0.20860390
I        3.94412756       9.22864723       9.34830666       0.10462430    -607.92898373      -0.08672710       0.26655941       1.52536899
I        8.81118202       3.53037977       9.65482903       0.14543198    -608.51962364       0.17957653      -0.04925554      -0.00410327
I        0.08925246       1.99907827      12.77073002       0.10788710    -608.35855269      -0.48156638      -0.29249430       0.77707662
I        6.65700817       8.56283188      11.86979294       0.14111674    -608.24478893       0.01883199       0.02166059       0.45870222
I       10.58382511       6.09983969      -0.36116844       0.15919383    -608.36916339      -0.66747683       0.33301002       0.23613489
I        4.49081135      12.28399277       0.10524363       0.10859398    -608.45628352       0.16733494      -0.44981559       0.09522346
I       12.91558552      10.25289536       7.44005251       0.12971927    -608.49870238      -0.53225975      -0.41538176       0.56815735
I        6.22645760       3.46481562       6.45183945       0.13452460    -608.38742314      -0.33203492       0.01593534      -0.55605777
I        3.37799740       6.28146839       5.68689919       0.12825409    -608.40748285      -0.49370301      -0.82687832      -0.47655805
I        9.23357773      -0.30085766       6.09169102       0.13192977    -608.32655173       0.48213458       0.04925000       0.56401688
I       12.97741699      10.12408257       0.11082867       0.14888860    -608.51647512      -0.34058423       0.03582849       0.00371873
I        5.79749393       4.68316793       0.34854358       0.14582741    -608.52930145       0.16310961      -0.29822684       0.27159142
I        1.87896419       5.95971632      12.55780792       0.14853053    -608.44951498       0.67218952       0.00382680      -0.26538822
I        7.83583736       0.23891228      12.03376865       0.10401600    -608.40258967       0.25878829      -0.50911404      -0.12998268
I        0.00885486       2.09728503       6.83147526       0.13364770    -608.57086079      -0.00587801       0.56298160      -0.17482657
I        6.93126249       9.17469406       6.19739485       0.15415438    -608.39271899       0.16316408      -0.09161260       0.22317802
I        9.39391518       5.94978857       5.97016859       0.12586361    -608.54250367       0.14958378      -0.22658367      -0.16188216
I        3.80221820      12.40549850       6.33192348       0.13197844    -608.52235992       0.38110308      -0.12759727      -0.07789440
N        6.52808142       6.75648165       3.83435154      -0.09159919    -609.64387968      -1.41020457       2.65897706      -0.12020479
N       12.72627831      12.64672565       3.79985452      -0.15018621    -609.77165377       0.06863354      -1.22775808      -1.49851062
N        0.06623861       6.25842381       7.69128895      -0.09345639    -609.58761208       2.31618324      -0.14508408      -1.86825239
N        5.50076485      -0.39816624       9.12146091      -0.13832402    -609.78102660      -0.68082043      -1.59865403      -1.08220088
N        6.89626503       6.45300770       8.57030773      -0.08751198    -609.64538614       0.08972945       1.71669707      -2.35032374
N        0.51304585       0.88699228       9.99238014      -0.06197794    -609.77922312      -0.59659121      -1.72535196       0.27137529
N       12.50789452       5.68714190       2.95444322      -0.14972670    -609.73594150      -0.90235079      -0.79092442       0.09660803
N        7.11239624      12.32153797       4.16789341      -0.04720772    -609.59904412       1.75882992      -0.28971286      -4.90978184
C        6.30046177       5.58160067       9.27721405      -0.05616385    -609.87373994       0.07580036       0.38542850       0.23831640
C       11.76815414      12.76663399       9.86042118      -0.11894445    -609.90692838       1.92784093      -0.21019676      -1.79106521
C        0.41705191       7.13921309       3.09371090      -0.11309453    -610.06615883      -0.31820127       0.74446663       0.12933193
C        6.34047794       0.92348891       2.76888013      -0.11893674    -609.88935582      -0.04971370      -1.40644509       2.28583235
C        6.62604141       5.52722311       3.68740153      -0.06203625    -609.91708628      -1.77690424      -3.51477352       1.00102469
C        0.24751110      -1.12092221       4.01028967      -0.10798740    -610.11440733       0.31538416       0.37898070       0.92322550
C       12.83728695       5.27852964       8.55660915      -0.02791210    -609.53404671      -3.81278758       2.44716039      -0.02643355
C        6.90827036      12.84682846       8.64916134      -0.11290590    -610.08602758       0.67575959      -0.14941409       0.21458639
H       15.66611004       6.00718212       8.74233246       0.16532414    -608.99071213      -0.31299995       3.50283701      -0.55683811
H        6.92600870      12.77975464       7.55706644       0.03248134    -609.24110532       0.21296748       0.13214215       0.10137908
H       11.80750465       5.02709866       9.08374882       0.11330790    -608.66204035       2.68507387      -0.78493421      -0.10455995
H        6.60814285      13.82285976       9.01889038       0.03215365    -609.22637774      -0.03526069       0.31759007      -0.25798060
H        1.45200312       5.73095226       8.92585087       0.09118074    -608.81373602       0.37198614      -1.09901863       1.03575356
H        7.86065340      12.60888290       9.12750912       0.04063864    -609.18465386       0.16528690      -0.03696750      -0.37129625
H        0.14496461       7.37539101       4.13825083       0.03778882    -609.19298729      -0.19945576       0.22441927      -0.39107508
H        5.26182652       0.86377972       2.81452394       0.07873744    -609.03587025      -0.44109173      -0.58429553      -0.74281541
H       -0.18632071       7.74563503       2.34206057       0.03592405    -609.21610014       0.86560154      -0.86578548       0.87253672
H        6.84222794       0.59542179       1.80284345       0.07180375    -609.06267579      -0.64728229       0.28850170       1.52027525
H       13.81179714       7.28781176       3.03884459       0.03727658    -609.22234029      -0.45571026       0.20083034      -0.37736060
H        6.46079063       1.97029436       2.97607470       0.08872919    -609.01460947       0.81910497       0.77299297       0.09892924
H        6.37964344      12.29227924      12.73610210       0.14611968    -608.88395169      -0.29330302       0.09716116      -0.43591260
H        5.22358227      -0.20056006      10.08518505       0.00046065    -609.48853064      -0.25717615      -0.04477436       0.28004855
H        0.79260248       6.72141743       7.10028553       0.05706423    -609.19387184      -0.11393757      -0.00084199       0.91557611
H        4.64753771      -0.21552843       8.45029545       0.01169380    -609.39316369       0.90065168      -0.86438157       1.07569573
H       -0.63879752       6.05183220       6.99496031       0.07006952    -609.10986025      -1.15651269      -0.53116728       0.37779208
H        5.80502367      -1.46343422       9.08521938       0.02211812    -609.29916985      -0.87426603       2.22733921      -0.24304950
H       12.82490730       5.33164835       2.03090668      -0.00500778    -609.47189076       0.26402136       0.14752077      -0.13910312
H        4.50308895       8.49574375       7.39086771       0.20446816    -608.60320484       0.64883995      -0.07638379      -0.05596353
H       -0.71309543       5.26278782       3.13520837       0.01267071    -609.39397160      -0.73428657       0.76135888      -0.44286842
H        8.11129093      12.70927906       4.43501329       0.07134884    -609.12080338      -2.04814950      -1.17978060      -0.86543989
H       13.00515079       5.21724844       3.69391370       0.00362768    -609.42002973       1.27709010      -0.44567513       0.32911800
H        7.33801651      11.36128044       3.52276611       0.09783524    -608.98815639      -0.29945833       2.64453549       2.65420283
H        0.80643809       2.28809261      14.45390987       0.15518259    -608.82982983      -0.26259583       0.24739978      -0.62253697
H        6.91845655       7.50283718       8.78011417       0.06071213    -609.08795131      -0.08899592      -1.59691959      -0.10641736
H        8.73216343       5.82321262      15.00925064       0.06756149    -608.95300175       0.18631144       0.24340242      -0.39073385
H        1.46874106      12.38761616       9.60195065       0.04555314    -609.36983259      -0.09949255       1.06495102       0.35215421
H        0.68647283       1.74085224       9.48531246       0.04733617    -609.33561100       0.18824757       0.03542869      -0.46984602
H        7.21103621       6.19653988       7.56017065       0.06203892    -609.15244000      -0.33079627       0.52005225       1.77239306
H        5.90017176       5.88344145      10.24133587       0.06369530    -609.18558272      -0.06722428      -0.22056981       0.10070313
H       11.19246101      -0.11063585       8.92827606       0.06760982    -609.04559933       0.15105688       0.13224665       0.27401035
H       15.60715866       7.02838421      -4.04059219       0.17776516    -608.89502217       0.11705182      -4.06128087       0.95754521
H       11.21136284      13.65047169       9.69556332       0.05555572    -609.01857039      -1.07117563       0.93342880       0.53017766
H        6.20401335       4.61259031       8.81873131       0.05860469    -609.11096094      -0.19150333      -0.43467676       0.30233464
H       11.50285149      12.12102222      10.66135406       0.05569890    -609.06469808      -0.52446840      -0.27217056       1.09759344
H        8.10057449       6.08512926       2.11569238       0.05365564    -608.99178673       0.55272183       0.11998508      -0.39193670
H       -0.53829288      -1.31129503       4.78489065       0.02465741    -609.22964437       0.88513929      -0.47656126      -0.51667748
H        5.72156382       4.88415051       3.85525417       0.06582124    -609.10159533       0.80530027       0.53380349      -0.58911549
H        1.69936824      10.97507095       4.37945461       0.03042129    -609.23426954      -1.16869806       0.37719925      -0.26354749
H        7.61118650       5.06356525       3.59502482       0.06427700    -608.95224496      -0.48048627      -0.06729283       0.13918661
H        0.06850187      -1.66715705       3.08946943       0.04151796    -609.16075109      -0.10468956      -0.01574596      -0.25224200
H       12.69934750      13.12230682       4.69030523       0.00661181    -609.41355961       1.25003935       1.07865304       1.18470452
H        7.36390495       7.27715588       3.77799296       0.05098534    -609.26333923       1.45984016       1.20674759      -0.03927793
H       11.75357914      12.77255058       3.59978151       0.00291189    -609.43371362      -1.38707135       0.01788467      -0.93451650
H        9.81277561       7.29339504       9.38260555       0.18318385    -608.89600853       0.16171278      -0.24859145       0.11735946
H        5.67032814       7.40311480       3.85896540       0.07475437    -609.11357447       0.55517109      -1.12274831       0.08550185
H       12.84853363       0.79738909       3.01021600       0.00817071    -609.35997475       0.09062298      -0.15196876       1.04207335
96
Lattice="12.299111366271973 0.0 0.0 0.397482693195343 12.292691230773926 0.0 0.0 0.0 12.580405235290527" Properties=species:S:1:pos:R:3:initial_charges:R:1:energies:R:1:forces:R:3 original_dataset_index=55 energy=-58460.1578391971 pbc="F F F"
Pb       9.79298115       9.13173771      12.37942982      -0.12651932    -606.74276958      -1.76414077       1.11755101       0.18423552
Pb       2.76789761       2.68733048      12.17339993      -0.14968592    -607.34089677       0.02675329       0.88866552       1.15154351
Pb       3.88303471       8.75818825      12.67368698      -0.12589748    -607.08549774      -1.28492344       0.50670200      -0.21840126
Pb       9.10780334       3.49688721      12.84542656      -0.16382456    -607.34952099      -0.23833514      -0.82579434      -0.33564744
Pb       9.69171715       9.02072144       6.29041195      -0.14169268    -607.21579533      -1.13439125      -0.49640329      -0.06504990
Pb       3.04415560       3.17086267       6.23901939      -0.14747734    -607.61513425      -0.13462503      -0.09960626      -0.36751380
Pb       9.33776474       2.69987583       6.25666475      -0.12318649    -607.11014923       0.42524753       0.86743872       0.07808623
Pb       3.48007989       9.32558823       6.10715723      -0.13194914    -607.09260247      -0.91601802       0.25409035       1.03128013
I       10.28323936       8.59474850       9.29830265       0.12240206    -608.56148888      -0.16877468      -0.47450207       0.37295165
I        3.42449117       2.71454525       9.41629791       0.13186318    -608.59065226       0.36534788       0.05927299      -0.90418959
I        9.36626911       2.93130589       3.13654780       0.13622348    -608.46483756       0.56523658      -0.43652377       1.26981312
I        4.26515865       8.93628788       3.36576581       0.12005549    -608.55817426      -0.01169540       0.28524376      -1.06981225
I        2.60624838       3.79421425       2.93844295       0.15615202    -608.45679521       0.16196030      -0.52589831       0.62945824
I        9.72961998       9.69697189       3.23627663       0.13374019    -608.55087755      -0.80367729      -0.14199950      -0.77705649
I        2.65966749       9.67586899       9.93999290       0.15841116    -608.33534315       0.64355780      -0.19070107      -0.66376430
I        9.32127953       3.03296137       9.92975616       0.14674221    -608.48216375      -0.07916920       0.10195909      -1.19965232
I       -0.18996520       2.27959943      12.58507919       0.13904831    -608.54448466      -0.01027361      -0.28660136      -0.18278175
I        6.63614035       8.48902321      12.31712246       0.12105767    -608.36829799       0.56159701      -0.09418576      -0.00965413
I        9.77369785       6.33369637      -0.19095342       0.11675208    -608.50048606       0.79223369      -0.51958848       0.27395843
I        4.10037851      12.29098320       0.18826047       0.13754599    -608.68892640       0.32413427      -0.88210517       0.21636578
I       12.25589371      10.08544827       6.03175402       0.13935915    -608.46334731       1.29125553       0.42290406       0.01924235
I        6.14877796       4.15672874       6.16915035       0.15035583    -608.55923231       0.03575960      -0.40207673       0.77140930
I        2.62633181       6.22792101       6.27966022       0.14048760    -608.50019356      -0.09839656       0.76107516      -0.30436249
I        7.90568399       0.28933445       6.56758213       0.12988952    -608.43045151       0.21237504      -0.82356522      -0.20718114
I       12.37292194      10.24622345      -0.36699870       0.09484403    -608.07478681       2.08207883      -1.12712385       1.32493844
I        6.11349058       3.81496763       0.17632931       0.15219489    -608.58775298      -0.50408646       0.24486987       0.22185159
I        2.38797832       6.02765131      12.74956417       0.13109998    -608.39923090      -0.14673255       0.66994650      -0.61816846
I        8.36898041       0.38736725      12.53863621       0.15325704    -608.54519868       0.27566609      -0.63945692      -0.03047932
I        0.33746004       1.51541889       6.74387026       0.14966185    -608.55674049      -0.36243435       0.27411311      -0.17479242
I        6.13457966       8.47506714       6.58803368       0.14558491    -608.47367581       1.10962013      -0.21405959       0.51293128
I       10.49726772       6.02963591       6.13769436       0.14126420    -608.65310714      -0.14078034       0.24881092      -0.42808339
I        4.82755184      12.74081516       6.29259348       0.14215924    -608.41273399      -0.57456773      -0.85376710      -0.09924616
N        5.70437050       5.84951353       3.09217334      -0.13704929    -609.79437871       3.19290238       2.75572076      -3.17728002
N       11.95800304      12.03869438       2.67935014      -0.14056577    -609.78792733       1.39778668       0.10858142      -0.44510250
N        1.05679691       6.29030180       9.31599236      -0.05169504    -609.69148078      -6.26912057      -0.00629877      -4.20274490
N        5.87430716      -0.08487361       9.59508991      -0.13821816    -609.79072150      -0.59038139       2.26950935      -2.07246688
N        7.90509939       5.94304085       8.87617207      -0.13679029    -609.77030471       2.62910335       3.06514281       3.11463439
N       -0.75935912      -0.21127845       9.72004700      -0.15222985    -609.38740265       0.23597400      -2.57507127      -0.47816279
N       12.61245441       6.49949312       2.85375881      -0.14519805    -609.77899156      -0.76792807       0.11087356      -0.17385279
N        6.77054071      11.50252151       2.46675181      -0.14052549    -609.70784695       1.83432940      -0.60781838       1.74088516
C        6.72341585       5.88858032       9.77058125      -0.11655950    -610.02539645      -0.00236594       3.34219771      -1.12515671
C       10.61282158      12.09657383       9.00246620      -0.13364495    -609.91284246       2.75497933       0.10834921       0.11197890
C        0.49427727       7.95730257       2.56983781      -0.12404975    -610.10431523       0.62922755       0.16388956      -0.06293345
C        6.50339937       0.57895267       3.05907321      -0.11785985    -609.97408593      -0.55245629      -0.63953109       1.92262141
C        7.15865469       5.63233757       3.45728469      -0.12260704    -609.94368715       0.25304731       1.17700317       1.29273868
C        0.62901479       0.34007981       2.89969182      -0.10414513    -610.04892835       0.13626835       0.82077794      -0.20391271
C       12.52141666       4.98109007       9.08602524      -0.11202440    -609.78618478      -0.22934334       2.02115575       1.15632044
C        7.16577339      11.05619717       9.55512714      -0.11736268    -610.09961584       0.08937805      -1.20104724      -2.66641901
H       11.61763573       5.17127132       8.45650578       0.06423222    -609.08856609       0.89815122       0.01341142       0.25863171
H        6.59907866      10.14044666       9.54989243       0.04054460    -609.19738972      -0.61521547      -0.31446098       0.03080642
H       13.06116295       4.06919050       8.75211334       0.06720417    -609.06566066      -0.08867478       0.48209439       0.08632105
H        7.82999516      10.98128319       8.63532448       0.04881649    -609.11717900      -0.95611739       0.59783496       0.93349689
H       -0.17208639       4.89235687      10.11181641       0.07217700    -608.99969362      -0.08256283      -0.91107384      -0.19275728
H        7.78148127      11.02246571      10.38811874       0.03199803    -609.22894653       1.11953066       0.33872847       1.72665110
H       -0.29733753       8.23759937       1.88659585       0.02449621    -609.21489209      -0.00203865       0.21106143      -0.15984101
H        7.40266514       0.40694648       3.66769958       0.04801649    -609.16749298      -0.41133353       0.74597139       0.52708552
H        1.48131478       8.11481857       2.09505272       0.01792926    -609.24352500      -0.40371879      -0.17670077       0.19239507
H        5.56108427       0.93416137       3.68268085       0.06049234    -609.13679026       1.86478405      -0.91675575      -1.32448314
H       12.74641705       8.58010960       3.47042680       0.03157738    -609.24308136      -0.12332976      -0.33435857       0.16035504
H        6.78969717       1.21036828       2.29131293       0.03491454    -609.20792216       0.23205274       1.70644608      -1.48869007
H       13.20837784       8.31225967      11.89016819       0.24098825    -608.22958018      -0.23309595       0.61545528       0.14655192
H        5.58110666       0.11737938      10.56084442       0.00439474    -609.44134046      -0.60051612      -0.10513180       0.01650539
H        1.77938116       5.98147631       9.79406834       0.07098375    -609.21738158       4.88094625      -1.02300535       2.37887859
H        6.32201099       0.81728208       9.25312424       0.01847011    -609.36491826       0.21592984      -0.95531320       0.59668524
H        1.18866599       6.74013758       8.38467598       0.05359065    -609.21650116       0.69821358      -0.40940235       1.24132947
H        5.05438757      -0.05485731       8.84676075       0.02901586    -609.29317748       1.02649685      -0.70235627       1.50437674
H       12.43434811       6.23584604       3.84601283       0.01356031    -609.38918123       0.53578047       0.13521474      -0.24534779
H        6.26998520      11.06597042       3.23877430       0.01114889    -609.41745138      -0.36181129      -1.16273831      -0.27991183
H        1.04982257       5.94812536       2.36902547       0.00333940    -609.40585259       0.47515718      -0.23434753       0.60752818
H        7.81408739      10.98567486       2.42425156       0.03299602    -609.30312563      -2.52735115       1.08553803      -0.19612463
H       11.77626705       6.19986343       2.34619856       0.01050651    -609.41426328      -0.39978875      -0.12944300       0.02090741
H        6.21883249      11.49352169       1.62017560       0.01034634    -609.42309658      -0.25087291      -0.24412491      -0.73540569
H       -0.49730882       0.57266760      10.19387245       0.02531530    -609.37203701       0.42514972       4.12474198       1.47147472
H        8.52498913       6.94260120       8.93150711       0.04527913    -609.28170423      -1.61491110      -2.27857198       0.10890927
H        8.53101730       5.25832653       9.36638641       0.00459530    -609.46021779       0.34781596      -0.18065692      -0.93537278
H       -0.53130597      11.48742771      10.58138752      -0.01397900    -609.38079205       0.97684316      -0.41615768      -1.35994899
H        0.06803635      -0.37792036       9.12394524       0.01782655    -609.39032331      -0.11889594      -0.91698995       0.13818112
H        7.83077192       5.75747347       7.91796684       0.01393468    -609.42663442      -0.72058664      -0.78294200      -2.05989727
H        6.02362442       6.73989010       9.51788807       0.04537344    -609.15136297       0.63010403      -0.85260954       0.38522781
H       10.56437206       0.44274217       8.10416603       0.03755342    -609.03202922      -1.81517413      -0.39180913       1.22089734
H        7.11619568       5.93978977      10.76844692       0.03106602    -609.22920306      -0.05287618       0.23071468       0.55569127
H       10.08576012      12.44146824       9.97151279       0.06042998    -608.97712314      -1.03981154      -0.35250602      -2.40286402
H        6.26599264       4.98461866       9.63086605       0.04438194    -609.18025055      -1.35438077      -2.43477237      -0.42137839
H       10.65325928      11.00032043       8.67996788       0.05023364    -609.05239367      -1.32439614       1.44866846       0.34868763
H        7.72458792       5.49468660       2.58145022       0.03950770    -609.23234397       0.62985443      -0.07190470      -1.33723500
H        0.54940009       1.47037935       2.90862036       0.03810325    -609.22654922       0.11189799      -1.23568208       0.24598213
H        7.26595163       4.75712872       4.08841515       0.03192211    -609.20919279      -0.18186404      -0.13715137      -0.24071907
H        1.61545956      12.34462070       2.00136733       0.03824100    -609.23049021      -0.14401733       0.14716127       0.51746904
H        7.63285542       6.47825670       4.04997587       0.05555278    -609.16255207      -0.96828466      -0.61892827      -0.67284733
H        1.07544303      -0.08113517       3.82020354       0.04429743    -609.20213629      -0.28260012       0.30695840      -0.31169669
H       12.06999207      11.03464317       2.55815125       0.00545870    -609.38179244      -0.21116482      -0.38292378      -0.01437515
H        5.12923145       5.31279182       3.66392350       0.00677793    -609.42231238      -1.81912505      -1.52092374       1.22202882
H       11.58864021      12.39316082       1.78817689      -0.00406150    -609.48722981      -0.38604092       0.28359893      -0.01328429
H        5.64786196       5.60774279       1.98818624       0.02924859    -609.30895328      -0.44260508       0.12841969       2.43488369
H        5.52299833       6.90150023       3.25726366       0.01551954    -609.37102767      -0.42490383      -1.41874584      -0.36788337
H       10.88159180      -0.14894219       3.42017293       0.00963109    -609.39983245      -0.35184537       0.42835035       0.54874842
96
Lattice="12.299111366271973 0.0 0.0 0.397482693195343 12.292691230773926 0.0 0.0 0.0 12.580405235290527" Properties=species:S:1:pos:R:3:initial_charges:R:1:energies:R:1:forces:R:3 original_dataset_index=440 energy=-58450.43952910364 pbc="F F F"
Pb       9.56919861       9.29178047      12.62743759      -0.12734750    -607.31215183       0.43119360      -0.62583042       0.01902889
Pb       2.90008545       2.96871519      12.40874004      -0.13846564    -607.48395256       0.79581362       0.83591042      -0.26710127
Pb       3.51579046       9.00571346      12.69405556      -0.14193173    -607.44636764      -0.13429114      -0.27735016      -0.66857346
Pb       8.46639729       3.18298435      12.75406075      -0.12542266    -607.23049684       0.18143204       0.78709246      -0.06685348
Pb      10.36721897       8.95817661       6.09706640      -0.11918794    -607.02798922      -0.56535996       0.18881349       0.22221677
Pb       2.93264985       3.05944943       6.31595516      -0.14006616    -607.41381513       0.06272076       0.28369553       0.42490741
Pb       9.13709164       2.73896861       6.44974899      -0.14376032    -607.50251528       0.26466606       0.12492510      -0.03295182
Pb       3.20096064       9.22260857       6.26919603      -0.11892058    -606.47927836       0.13516619       0.53165574      -1.29093115
I        9.16965294       8.78780460       9.34494209       0.09214486    -608.05443602       1.19851422      -0.85749300      -0.62858508
I        3.85715580       3.09838343       9.42235374       0.13427210    -608.54615331      -0.48214661      -0.12900276       0.22355963
I        9.45999813       2.87849116       3.27045035       0.13795602    -608.59158295       0.31858844      -0.03188035      -0.08224037
I        3.96162772       8.90808392       3.03589988       0.13121293    -608.49920469      -0.02866427       0.43962638       0.09221683
I        2.39855838       2.98561215       3.14333105       0.11174858    -608.41086962       0.08222786      -0.19433460      -0.09288308
I        9.67280102       9.35202122       3.06922555       0.12299189    -608.55402542      -0.28733027       0.02953068      -0.12436211
I        3.94724178       9.23822880       9.34463024       0.10709607    -607.97712766      -0.12185199       0.26511822       1.51102226
I        8.81342888       3.52910542       9.64324570       0.14540683    -608.50707991       0.15312686      -0.02293697       0.01557262
I        0.10955948       1.99680519      12.77558804       0.11478116    -608.39131616      -0.43041501      -0.26253916       1.06544880
I        6.67015934       8.53499985      11.86709595       0.14073688    -608.24513128      -0.01449702       0.09493557       0.48801161
I       10.59199238       6.10705471      -0.38281095       0.16161136    -608.35968248      -0.64341493       0.33810822       0.17824373
I        4.46394348      12.26226616       0.10991821       0.11132952    -608.45083743       0.60311447      -0.59700158       0.06636910
I       12.91596031      10.25156689       7.44961596       0.12497111    -608.50797583      -0.51220710      -0.45477619       0.53984234
I        6.21587610       3.48455000       6.45447540       0.13622348    -608.38578239      -0.27614911       0.02338425      -0.45997974
I        3.37173867       6.27972984       5.67616463       0.12372027    -608.29537699      -0.51358280      -0.82954071      -0.87939456
I        9.23951721      -0.30428970       6.09322596       0.12251233    -608.32372777       0.76824076      -0.10594573       0.67987905
I       12.97266197      10.12851334       0.11476081       0.14904962    -608.53461237      -0.33071717       0.02648375       0.04211042
I        5.79041147       4.70812368       0.34501433       0.14737630    -608.53385107       0.17174113      -0.31631505       0.26210653
I        1.88656545       5.95353794      12.59732723       0.14753088    -608.45115613       0.65269035       0.00190185      -0.25785963
I        7.83894634       0.23640159      12.02961063       0.10737141    -608.45443830      -0.07940830      -0.72761092       0.07537004
I        0.01675606       2.08170104       6.82292986       0.12960225    -608.54088518      -0.00563131       0.44118104      -0.41831610
I        6.94802570       9.16129017       6.17748404       0.14997895    -608.43432211       0.09403944       0.06474484       0.18111726
I        9.37330914       5.96108627       5.96043062       0.12481788    -608.56458390       0.31339816      -0.22158232      -0.09778298
I        3.80153751      12.39514160       6.32710743       0.13030748    -608.54615847       0.33476215      -0.16986281      -0.16942956
N        6.52255535       6.81980705       3.81367779      -0.08664469    -609.62597214      -0.20520004      -1.16496439       0.08870170
N       12.77841663      12.67235756       3.81445909      -0.15471382    -609.67358087      -3.20473973      -0.28334044       0.49597282
N        0.13038322       6.36991549       7.70907736      -0.08358132    -609.58171860      -1.44840663      -2.57530176       0.07695068
N        5.50238991      -0.37195304       9.09842491      -0.13974641    -609.75616455      -0.24800355       1.66237047       1.01885374
N        6.92372370       6.43409348       8.55287170      -0.08992264    -609.55885316      -0.53967316       0.97788499       0.19374979
N        0.52931660       0.86283201       9.92977428      -0.05975220    -609.78911163      -2.38863105      -0.20700964       0.80394250
N       12.49661732       5.70464420       2.97166681      -0.14197932    -609.71492864       1.05765680       0.77562063       1.05363333
N        7.17163229      12.40137291       4.12750769      -0.06035745    -609.54419894      -0.10227427       1.09116793       0.41267803
C        6.23992014       5.69505692       9.29441166      -0.05226760    -609.91089402      -1.07290689      -2.45192354       1.37666419
C       11.74063396      12.80474758       9.86512661      -0.11307403    -609.85824032       0.18682797       0.30669728       1.93139546
C        0.40960896       7.22337389       3.11866403      -0.11801185    -610.04990027      -0.55251952      -1.93560591      -0.01830408
C        6.34617138       0.95714957       2.84010243      -0.11606730    -609.76141860      -1.92182106      -2.41011764       2.71594193
C        6.57385921       5.54319096       3.72283030      -0.05460062    -609.93517465       1.98576286      -0.47650367      -0.35899695
C        0.17202412      -1.10329247       4.01336718      -0.11827204    -610.07676675       1.23452331       0.59395159       1.64423427
C       12.82285404       5.28120756       8.52030468      -0.02431226    -609.62677667       2.62706764       4.72566347       1.69339160
C        6.94593954      12.86713886       8.63214016      -0.11038295    -610.07586616      -0.15826104      -0.32060071      -0.57003864
H       16.24967957       6.66723824       8.49545860       0.11474130    -608.91891721      -2.76403925      -0.80982348      -0.62469523
H        6.96458673      12.78564072       7.54091644       0.03209135    -609.22159723       0.05217569       0.06203603      -0.00718613
H       12.12125206       5.03060532       9.34808636       0.10568470    -608.71775934      -0.19321747      -0.54872714      -0.80235849
H        6.61156034      13.86215305       8.91892052       0.02740276    -609.23277903       0.28708911       0.10580910       0.09344298
H        1.49148142       5.80170631       9.00011826       0.11969998    -608.61362220      -1.05671190      -2.10868578      -0.60763430
H        7.92763710      12.60128593       9.02996254       0.03693377    -609.20661454      -0.17683702       0.05259429       0.13866091
H        0.10437912       7.40447187       4.13732719       0.03313073    -609.21264991       0.07260610       0.52155503       0.43785966
H        5.24623156       0.62695754       2.96999216       0.09500584    -608.81206177       1.22084668       0.80062041      -0.93070373
H       -0.26598564       7.66513491       2.42645097       0.02928717    -609.24019183      -0.36492322       0.71759954      -0.63845312
H        6.74915409       0.43988746       1.98291564       0.07840580    -608.90424591       0.27403735       0.51058013      -0.46634726
H       13.74736309       7.43134165       2.91448569       0.02888919    -609.24196153       0.35050979       0.19901293       0.01187774
H        6.29576492       2.09055424       2.79388952       0.09294795    -608.85426027       0.92804567      -1.26425719       0.66872903
H        6.43324280      12.03861904      12.78537273       0.15925454    -608.83308978      -0.38293351       0.46571799      -0.43762722
H        5.22824383      -0.20704232      10.09562778       0.00295492    -609.46332476       0.38622888      -0.55334891      -0.38633125
H        0.79951286       6.96179867       7.21166134       0.06510030    -609.17502195       0.04341571      -0.41828091       0.07054898
H        4.63513708      -0.23034522       8.58389854       0.00375190    -609.43776769      -0.73152043       0.62112462      -0.60612825
H       -0.70068192       6.05473328       7.18142891       0.05910073    -609.08810553       0.06707980       0.96572711      -0.24676990
H        5.66236687      -1.32651317       8.87840271       0.00444897    -609.40724404       0.71226734      -1.68992003       0.20658372
H       12.91130543       5.39180374       2.05420780      -0.00465434    -609.47353076      -0.44670447       0.07093890       0.13761511
H        4.45873833       8.52720928       7.45540953       0.19647314    -608.72392866       0.57606817      -0.16877283       0.01204331
H       -0.79144138       5.43883133       3.11752820       0.00830345    -609.43727680       0.32227314      -0.14772817      -0.24371890
H        7.98739910      12.08550930       4.72561359       0.07107133    -609.16003031       0.26229381       2.49274807      -1.36315982
H       13.10083866       5.31024170       3.73388958       0.00513336    -609.41194467      -0.61307404      -0.26894001      -0.65581275
H        7.00088644      11.42538071       4.02081633       0.07010759    -609.16317765      -1.71023893      -0.99551706      -1.36381155
H        0.85191435       2.23107886      14.55400562       0.15909709    -608.82757809      -0.15767340       0.34061736      -0.83538778
H        6.97016716       7.40024662       8.77166080       0.05022372    -609.13730184       0.30818911       1.41964089      -0.03719859
H        8.81949043       5.92154551      14.89943695       0.06455977    -609.03335548       0.06962925       0.17189307      -0.14950474
H        1.38123775      12.42629814       9.41157913       0.04922957    -609.35900016       0.79697631       0.01720035      -0.41610513
H        0.64859855       1.78286076       9.53772926       0.05054683    -609.28176002       0.43757581       0.03389063      -0.56630983
H        7.35369682       6.10496807       7.71842194       0.05552689    -609.18706879       0.63994113      -0.36072301      -1.23153864
H        5.77663708       6.06587696      10.24492645       0.06611411    -609.16548144       0.35447668      -0.24616875      -0.88462678
H       11.10220814      -0.12350307       9.01597881       0.06945428    -609.04011063      -0.10838135       0.04206202      -0.36732331
H       15.39772320       6.46516132      -4.41551065       0.13590537    -608.86255204       2.69698282       0.30942570       1.41422574
H       11.05144215      13.71804905       9.87435150       0.06330615    -609.06255572       1.06172526      -1.03325687      -0.03245978
H        6.17485285       4.62660551       8.96799564       0.06500403    -609.11154347      -0.28464992       0.94240294       0.61488940
H       11.51601601      12.18275356      10.80680275       0.06761553    -609.05014128       0.06029112       0.71734311      -1.10091579
H        8.14470005       6.14097786       2.07343984       0.05917183    -609.00607993       0.34342218       0.15480126      -0.31577440
H       -0.50529391      -1.23042297       4.82612562       0.02422763    -609.20999935      -0.84257006      -0.93057295       0.38466889
H        5.80769968       4.86515474       4.00954628       0.06879973    -609.18303502      -1.21521213      -0.03331935      -0.06794310
H        1.52529323      11.07528400       4.48999500       0.03137780    -609.22528619       0.87859070      -0.72283271      -0.13253584
H        7.51632309       5.07955313       3.41878223       0.06212345    -608.96031597      -0.19562080      -0.05516116       0.35696661
H        0.02823719      -1.75303721       3.14260435       0.04425790    -609.14295156      -0.13499633       0.62967758      -0.12848114
H       12.98922539      13.38288021       4.68840790       0.04130353    -609.21386687       0.64614656      -1.44218708      -1.43451641
H        7.37348032       7.41262341       3.78737903       0.05849959    -609.10312245      -0.68760680       0.00794199      -0.24176489
H       11.69282818      12.76031780       3.92379880       0.01584014    -609.27227118       1.58113429       0.66819801      -1.31022977
H        9.91661453       7.24444485       9.05948353       0.18457255    -608.83089662      -0.38003538       1.05141186       0.24012865
H        5.57175016       7.13631248       3.97595334       0.04931737    -609.11153166      -0.12251275       1.37589114       0.36625985
H       12.74097061       0.47212943       2.85250974       0.00418621    -609.30356613      -0.24572945       1.36866833       0.37030507
96
Lattice="12.299111366271973 0.0 0.0 0.397482693195343 12.292691230773926 0.0 0.0 0.0 12.580405235290527" Properties=species:S:1:pos:R:3:initial_charges:R:1:energies:R:1:forces:R:3 original_dataset_index=187 energy=-58453.35417338451 pbc="F F F"
Pb      10.08801365       9.96003723      12.27803612      -0.11992005    -606.99011857      -0.17215647      -0.19221628      -0.31924402
Pb       2.55050468       2.75119114      12.23768234      -0.14982380    -607.38013047      -1.05868033      -0.39395775       0.42539973
Pb       3.74956751       8.77611160      12.49027824      -0.10776395    -606.80486994      -1.39066560       0.28647916       0.28699123
Pb       8.48552132       3.49544477      13.03326702      -0.10386570    -606.31879525      -0.58765058      -0.10000310       0.02438675
Pb       9.42733288       8.76202011       6.07343102      -0.14408480    -607.58264646       0.17002883      -0.30599340       0.29705456
Pb       2.81825662       3.24216413       6.03646946      -0.12698834    -607.22731546       0.22731168       0.89924264      -0.11906766
Pb       9.51236153       2.57401657       6.78470087      -0.14079492    -607.41409911      -0.57211212       0.51972953      -0.50614531
Pb       3.36453128       9.84190369       6.44545841      -0.13931340    -607.21767676       0.11438494      -1.23413624      -0.86003447
I       10.28216457       8.38310146       9.08274937       0.15218446    -608.54168289      -0.30243070       0.20855644       0.42482541
I        3.62349272       3.29300570       9.58404541       0.12827447    -608.61134932       0.03569248      -0.02057751      -1.24625501
I        9.13078976       2.74234176       3.24426222       0.09353639    -608.30425994       1.51771750      -0.22046464       0.84735192
I        4.56396818       9.42808342       3.04542732       0.14529876    -608.61340739      -0.29425387       0.35575751      -0.35623419
I        2.25378871       3.34456587       2.93817854       0.14489925    -608.47078416       0.19787908       0.01876360       0.67766142
I        9.69177341       9.19446468       2.67385888       0.13940732    -608.59102552      -0.18993855       0.11131863      -0.13817192
I        3.47573447       9.56338120       9.34457397       0.11746616    -608.55984942       0.07346183      -0.20586857       0.92884047
I        9.40943527       3.24231482       9.68161488       0.12799881    -608.76337838      -0.17837978       0.20933306       0.52503285
I       -0.64980209       2.18501019      13.01490021       0.14954574    -608.32245585       0.27754502       0.13047264       0.32712282
I        6.71435738       8.48587227      12.50872517       0.08073021    -608.13857581       0.33590954       0.31696718       0.26872243
I       10.27558994       5.99919558      -0.13180636       0.07768925    -608.22771625       0.54380238       1.26156556       0.19507958
I        3.89880943      12.05846691       0.09667607       0.13690968    -608.50144160       0.44880875      -0.26344461      -0.02579989
I       12.70827961       9.76321507       5.86853695       0.13806264    -608.61909927      -0.27315370       0.37042609       0.27316942
I        6.57817984       3.85423636       6.45443249       0.16428834    -608.56174243      -0.25243947      -0.15204846       0.02176825
I        2.89937353       6.56925344       5.81549549       0.15266301    -608.54789943       0.25071700      -0.36353492       0.19389752
I        8.37652016      -0.39709479       6.13233042       0.13397272    -608.56117494       0.34220667       0.05773936       0.09050389
I       12.96036530      10.21789360       0.22658189       0.12725011    -608.61493310       0.25729852      -0.13733521      -0.17738379
I        5.41358995       3.54747725       0.24079877       0.06216723    -607.69685045       1.86537823      -0.67450159      -0.71856167
I        2.06008887       5.73107624      12.68723392       0.14512055    -608.47868900       0.12243441       1.02643883      -0.38567250
I        8.38029671       0.38327840      12.76385403       0.12566413    -608.57135520      -0.45412598      -0.45262720       0.10537003
I        0.14213166       1.93544221       6.45403719       0.13269931    -608.54523840       0.08550620      -0.26209856      -0.02416362
I        6.69212627       8.44851494       7.17873764       0.14753044    -608.28010968      -0.18413816       0.90305784      -0.79184116
I       10.55020142       5.61584139       5.95346785       0.15124390    -608.60466766      -0.23962776       0.13158024      -0.44874471
I        4.15204096      12.65303230       6.17047787       0.11888517    -608.50660252       0.70148128       0.27664990       0.18603166
N        6.13222790       6.69436407       4.06123972      -0.05942567    -609.83118247      -2.10204836      -2.32013497       0.37352728
N       12.46055126      12.02642250       3.15526032      -0.14965987    -609.83592319      -0.05017837       0.29410704       0.31464147
N        0.79483289       6.78918028       8.67429924      -0.05670993    -609.71024689      -0.81218945      -1.27972662      -2.60871324
N        5.47959661       0.20569749       9.72295856      -0.14916629    -609.82379868       1.40861523       1.16296123       1.12111736
N        7.25538778       6.21120405       9.33594799      -0.09004499    -609.69881856       3.98602998      -1.32704022       1.36376278
N        0.66261029      -0.08690255       9.48188305      -0.06142577    -609.71396422      -1.51055441      -0.53523034      -2.44730090
N       12.05976486       6.52430105       2.63261271      -0.14496708    -609.71925920       0.63326419      -1.32587469       1.21249982
N        6.92269230      12.26527786       3.36728311      -0.13297230    -609.78642256      -0.01252698       0.60651383      -2.90177068
C        6.06352091       6.08551550       8.98003960      -0.05776939    -609.78820219      -3.36658062      -0.43662229       1.02526148
C       11.86718273      12.22714520       9.66287899      -0.11680605    -609.85854815       1.10364100       1.86873308       0.81565393
C        0.70632595       7.61687756       3.01917601      -0.11792687    -610.03029119       0.66418501       0.43522960      -0.24794284
C        5.82447815       1.29625642       3.14402866      -0.11498958    -610.02652144      -1.71703807      -1.34764189      -0.77955027
C        7.27091551       6.09729624       3.38114858      -0.13310032    -609.80681206       1.40410418       0.70906245       2.58760305
C        1.23995435      -0.19347025       3.37704921      -0.11363177    -610.04399943       0.95510663      -0.01344472      -0.05565510
C       12.69938850       5.38633490       8.76069450      -0.11415004    -609.93013022      -0.12460928       1.50373217       0.26854675
C        7.36231184      12.47381115       9.47208405      -0.11644342    -610.05670900       0.10248070       1.12206875       0.68763700
H       13.52090549       4.88334131       9.19817257       0.06855220    -608.93401827       1.17624282      -1.38695098       0.25951835
H        7.58348560      12.55388069       8.41915417       0.03952092    -609.19809968      -0.25136953       0.17801075      -0.44978263
H       11.88185883       5.18892717       9.49793434       0.06072906    -609.01630199      -0.07283477       0.29094168      -0.90045707
H        7.86101723      13.31247425      10.04495335       0.03375972    -609.20005376      -0.68316242      -0.80293653      -0.65175652
H        0.22542977       5.08375645       7.71073866       0.04716007    -609.03940146      -0.25526492      -0.39233450       0.78350213
H        7.77349520      11.52973557       9.80339432       0.04688117    -609.18198926      -0.08557810      -0.40338644       0.24388497
H        0.12330410       8.49564743       3.32934284       0.03603091    -609.18542041       0.09785765      -0.44759239       0.15719933
H        5.17434359       1.49447095       4.01578283       0.03759441    -609.20322349       0.34380502      -0.07742783      -0.35623405
H        1.14818716       7.88195276       2.03340077       0.04102153    -609.18486119       0.28419287      -0.09548817       0.78004609
H        5.17309475       1.18212736       2.21172237       0.04156737    -609.18914753       0.77468350       0.12571782       1.15091839
H       13.78247166       7.32862663       3.80323768       0.04198841    -609.20040074      -1.05045331       0.04434014      -0.97584023
H        6.53266811       2.08364296       3.00660634       0.03621946    -609.16550215       0.48457121       0.37989784      -0.03407337
H        5.96880245      14.47025013      11.42908382       0.21301956    -608.69575576      -0.70938400       0.85053262       0.94475053
H        5.29863071       0.16566458      10.76387119       0.00172407    -609.37011755      -0.24702580      -0.16899718      -0.69036186
H        1.21366775       7.01510143       7.74503231       0.04450950    -609.29251143      -0.23679899       0.23071653       1.39275509
H        4.99093866       1.05911696       9.39560509       0.00534072    -609.37498976       0.29026671       0.36611921       0.04049562
H        0.94738090       7.32636929       9.47278595       0.05568524    -609.27768549       0.52291716       0.94620375       1.23119332
H        5.03105450      -0.53265327       9.24470520       0.00391494    -609.42075040      -0.89217539      -1.71439318      -0.55596076
H       12.64641666       5.67555904       2.34762049       0.01098913    -609.39363074      -0.71631742       0.92369579      -0.09217888
H        7.22222185      12.14419651       4.30052948       0.00093081    -609.48402939       1.04012646       0.01492976       1.98782249
H       -0.78583390       6.90830517       1.84633863      -0.00416629    -609.35862269      -0.06573547      -0.49321722       0.32854220
H        7.73568010      12.12793827       2.68875337       0.01691997    -609.42743706      -0.76868160       0.29476222       0.79866332
H       11.41860867       6.16471815       3.41275001       0.01426183    -609.38670876       0.51027413       0.66466266      -0.48963611
H        6.30798101      11.46378231       3.19761729       0.00937111    -609.46686501      -0.69139566      -0.30904836      -0.26988012
H       -1.32661283       2.25657558      15.37868881       0.20357859    -608.68924919      -1.32419308       0.56932909      -0.58792659
H        7.84262562       7.06536388       9.57272339       0.07950383    -608.95149345      -0.74166745      -0.55641484      -1.19554698
H        8.08246422       7.71488237      12.11265659       0.17466357    -608.83611830       0.69869819      -0.56398439      -0.25495559
H        1.50777042      11.63153839      10.19167900       0.05288847    -609.27224747      -0.24089564      -0.05931902       0.36943650
H        0.70893198      -0.68722582       8.61103725       0.04824857    -609.29131665       0.65690566       0.82148195       0.91368759
H        7.81903172       5.29005814       9.38718987       0.06776240    -609.08779047      -0.57123166       1.28870805       0.32620048
H        5.39476204       6.89960527       8.78084755       0.08286203    -608.95312566       0.04955264       0.87720618      -0.08127130
H       10.79162407       0.18374798       8.83932209       0.06871171    -609.12694875       0.84228196       0.55712345      -0.61288476
H        9.40843868       5.01363277      11.48443794       0.18495339    -608.88476104      -0.17001495      -0.40415074      -0.94529188
H       11.62062645      12.88677788      10.49803734       0.04699975    -609.15379612      -0.08862363       0.19578589       0.07206621
H        5.46202230       5.21436357       9.29383659       0.08895391    -608.96350298       0.72389413      -0.61258402      -1.02853628
H       11.50341702      11.29607487       9.89656925       0.06417134    -609.03604814      -0.88549819      -2.80781305       0.91340016
H        7.45450163       6.45695496       2.40283608       0.04709630    -609.02504897      -0.13605752       0.26005818      -1.24327642
H        1.82716608      -1.15238392       3.24261427       0.04093580    -609.23443876      -1.04797865       0.73945854       0.07981573
H        7.36982727       5.01765251       3.49019361       0.04742868    -608.93342446      -0.41493028      -0.16849769      -0.27919554
H        1.79442787      12.49709988       4.39681339       0.03543667    -609.24862698      -0.07131301      -0.33311479      -0.36512527
H        8.18087769       6.45870304       3.96189785       0.05932395    -609.02664696      -0.38509622      -0.32882963      -0.49545775
H        1.62376368       0.56872594       2.67413807       0.03859379    -609.22051513      -0.08292337      -0.42918970       0.18756309
H       12.13091087      13.02229404       3.30157351       0.00581564    -609.35372065      -0.02887750      -1.05458526      -0.52870759
H        5.47733164       5.90959501       4.52805233       0.06453710    -609.19151293       1.71643335       2.26734448      -1.25833865
H       11.99566460      11.43911648       3.89078021       0.00737197    -609.36609632       0.31083630       0.01820537      -0.32129770
H        6.82497454       4.88953352       1.59256458       0.23952109    -608.40743739       0.13923120      -0.46545498      -0.29609301
H        5.55511284       7.24935055       3.40366626       0.04894187    -609.29572759       0.23583993      -0.56128604       0.51656008
H       11.84461308      -0.65112466       2.18912292       0.00923220    -609.35600340       0.03735344       0.50980303       0.77083823
96
Lattice="12.299111366271973 0.0 0.0 0.397482693195343 12.292691230773926 0.0 0.0 0.0 12.580405235290527" Properties=species:S:1:pos:R:3:initial_charges:R:1:energies:R:1:forces:R:3 original_dataset_index=189 energy=-58453.55474933746 pbc="F F F"
Pb      10.09203720       9.95601368      12.27513313      -0.11838603    -606.95611479      -0.26361271       0.00692961      -0.42678911
Pb       2.54563236       2.74751878      12.23872662      -0.14782998    -607.36565674      -1.35441252      -0.31423515       0.46385328
Pb       3.74669170       8.78235817      12.49003792      -0.10588942    -606.75436388      -1.39765347       0.28252860       0.39253040
Pb       8.48785877       3.49791551      13.02946949      -0.12341576    -606.59593959      -0.37357258       0.60362502       0.52438301
Pb       9.43214512       8.76039124       6.07443237      -0.14413132    -607.57508670       0.24886621      -0.36323644       0.36843287
Pb       2.82032108       3.24947333       6.03719044      -0.12689805    -607.23208590       0.19123289       0.89823363      -0.14880535
Pb       9.50928783       2.57784653       6.78311539      -0.14193209    -607.40669945      -0.60763038       0.59409642      -0.52010001
Pb       3.36659431       9.83522320       6.43549299      -0.13845727    -607.23734191       0.08914364      -1.19346533      -0.83469201
I       10.27774715       8.38512897       9.08163643       0.15704159    -608.47505487      -0.26694309       0.28506735       0.29560708
I        3.62232876       3.29754925       9.58198452       0.12858082    -608.61085876       0.17884879      -0.09722130      -1.15828657
I        9.13369751       2.73922110       3.25264072       0.10177212    -608.17391344       2.15760060      -0.74997581       1.03271768
I        4.56136513       9.43463993       3.04252672       0.14568758    -608.59224086      -0.32930046       0.31590988      -0.26779739
I        2.25346851       3.33990574       2.94010758       0.14467292    -608.46755077       0.19530757       0.04342433       0.60343304
I        9.69051933       9.19459820       2.67184591       0.13591580    -608.59452712      -0.13890233       0.09495121      -0.05522091
I        3.47980452       9.55728531       9.36102962       0.11441455    -608.57783799       0.10633071      -0.17300891       0.80718615
I        9.40501595       3.24693966       9.69111729       0.13556071    -608.77136562      -0.03882823       0.19024712       0.36149728
I       -0.64557737       2.18256307      13.01500225       0.14380905    -608.27580412       0.55265438      -0.06879734       0.51017935
I        6.71386194       8.49227524      12.51442432       0.08027619    -608.17472817      -0.45266678       0.53616227      -0.38555651
I       10.27877617       5.99701357      -0.12904564       0.07886618    -608.27455672       0.19603254       1.62558711       0.41158128
I        3.90397811      12.06359577       0.09222911       0.13669924    -608.48377390       0.47290949      -0.20489778      -0.04726038
I       12.70330143       9.76093483       5.87010527       0.13725001    -608.62117860      -0.26204919       0.38008253       0.24930669
I        6.58169413       3.84865761       6.45487690       0.16295128    -608.53453651      -0.24527002      -0.17649785      -0.03457349
I        2.90392804       6.56052971       5.81546926       0.15468833    -608.54102998       0.25644042      -0.33302353       0.16910896
I        8.38704967      -0.40235263       6.13270187       0.12892921    -608.54198420       0.25504967       0.00620948      -0.01909872
I       12.96085835      10.21532154       0.22934984       0.12740944    -608.62792766       0.36754423      -0.18036868      -0.15224484
I        5.41909170       3.54978800       0.24644801       0.07358904    -608.05721979       0.34902772      -0.94899334      -0.67747734
I        2.03715611       5.73560667      12.68358231       0.14537877    -608.48472873       0.19383254       0.94656245      -0.40173435
I        8.37334061       0.38570347      12.76756096       0.12907329    -608.57402228      -0.38551038      -0.91863866       0.01934679
I        0.13654445       1.94222522       6.45066738       0.13278127    -608.54366183       0.17036617      -0.26387173      -0.02390111
I        6.68814850       8.45038605       7.17886114       0.14450485    -608.25113547      -0.20838076       1.12538172      -0.91951817
I       10.54705811       5.61296797       5.94847870       0.15151571    -608.61242757      -0.17063117       0.15635815      -0.37185016
I        4.15378809      12.65873241       6.16738701       0.11858401    -608.50388333       0.68213835       0.19198774       0.20484080
N        6.14097500       6.68513060       4.08169746      -0.05981043    -609.79215993       1.94630259       2.65088176      -2.15435586
N       12.45703602      12.02356815       3.15210271      -0.15226705    -609.79140282       0.90294307      -1.37391487       1.46929675
N        0.78295892       6.82404518       8.66598415      -0.05399164    -609.70291823      -1.25982653      -1.50401899       1.38597892
N        5.48641968       0.20136032       9.72131920      -0.14610898    -609.85698941      -0.15582170      -2.34908215      -1.55968796
N        7.25487661       6.17189789       9.22628498      -0.09756873    -609.54484188       4.88951765      -0.01839539       2.27509743
N        0.66392702      -0.08741027       9.48883820      -0.06225112    -609.74782208      -0.77705332       0.35383420       0.80972566
N       12.04367065       6.49610329       2.65780663      -0.14423968    -609.67665869       0.42664449       0.63266819       2.47437179
N        6.89711761      12.27478695       3.34830904      -0.13080618    -609.79883882      -0.89216985      -0.90137880       1.59069761
C        6.09987307       6.08790541       8.88533211      -0.07169313    -609.85958924      -8.06521265      -0.27115308       0.31164468
C       11.88047028      12.25749969       9.66369629      -0.11012925    -609.90205728      -0.46515613      -1.65907790       0.40028251
C        0.70366126       7.60239077       3.03944659      -0.12174723    -609.99267979      -1.72313386       0.69728664      -1.85649610
C        5.80777693       1.29258263       3.14087224      -0.11816632    -610.05424839       0.02762032      -0.56987415       0.43200793
C        7.28197575       6.11121607       3.42189455      -0.12867096    -609.72355537      -0.01057282       0.92127983      -0.39701372
C        1.23576355      -0.18772499       3.38057208      -0.11740444    -610.01379039       0.07459616       1.10381501      -0.21565586
C       12.70634747       5.37178040       8.76025391      -0.11199398    -609.92016815       2.75446999       1.74461775       2.21154324
C        7.34400368      12.47962952       9.45074463      -0.11375842    -610.07418847       0.97335692      -1.01747469      -0.96679064
H       13.60243797       4.80476856       9.24827003       0.07183416    -608.99298503      -1.34966139       0.38666300      -0.78764976
H        7.57745171      12.57951069       8.35666656       0.04577329    -609.18315458      -0.61446221       0.33525385       0.85377784
H       11.87541962       5.30191422       9.44823360       0.05697551    -609.04858582      -0.54965806      -0.40887522      -0.02546575
H        7.79353666      13.27732563      10.03887653       0.02999196    -609.22281436       0.24656987      -0.04666058      -0.09441563
H        0.22837301       5.01886225       7.77452230       0.04935381    -609.06254538      -0.39506241      -0.48012373      -0.70926342
H        7.81744003      11.46291733       9.67505360       0.05715661    -609.15347995      -0.84355894       1.19580516       0.21802303
H        0.10602487       8.46093273       3.37047720       0.02633862    -609.18931074       0.34681418      -0.35455021       0.22236491
H        5.15193319       1.43088472       3.99584794       0.03212964    -609.22166221       0.04755509       0.40056855       0.04473599
H        1.14691937       7.84906816       2.08334017       0.03592967    -609.19460399       0.31103449       0.32429021      -0.23505722
H        5.22394991       1.18364191       2.26092029       0.03812036    -609.17597862      -0.88971836      -0.28499000      -0.83663828
H       13.77277565       7.28947544       3.67069864       0.03482856    -609.20254274       0.87093583      -0.69944807       1.41150033
H        6.46973324       2.13242579       2.91225219       0.03390670    -609.18736799       0.28536724      -0.28218955       0.63035977
H        5.74156713      14.39836597      11.67614079       0.18968482    -608.69443183      -0.08610080       1.17709720       0.92482801
H        5.31537104       0.17819245      10.73059845       0.00171812    -609.38648409      -0.39763249      -0.37163826       0.39932663
H        1.21136796       7.00135899       7.78584528       0.04702027    -609.30992075       0.84256885       0.81127501      -0.31984860
H        4.99138403       1.02621996       9.36117077       0.00649339    -609.38459749      -0.02261415       0.47504511      -0.20501054
H        1.01348388       7.32567263       9.54998207       0.05889250    -609.21890262       0.07938584      -0.59851027      -1.36816561
H        5.02778578      -0.67449623       9.23785114       0.01991251    -609.34316049       0.45877143       1.54216526       1.21022214
H       12.63053894       5.72740173       2.37894225       0.00121790    -609.45152632       0.29671316      -1.02227256      -0.58669352
H        7.34797239      12.08545017       4.32603264       0.01156402    -609.42713572      -0.35922007       0.70642864      -0.98674592
H       -0.81269425       6.85172653       1.89051974      -0.00440979    -609.37639303      -0.43198685      -0.19836495      -0.13143373
H        7.60662270      12.15066147       2.67053366       0.00724383    -609.49773128       1.47685826      -0.15675865      -1.19951721
H       11.45409966       6.18093014       3.49164963       0.00831735    -609.38988329       0.28577116       0.30038766      -0.64513106
H        6.27034235      11.42607307       3.20630860       0.01414254    -609.45072166      -0.09003874       0.78604596       0.03906737
H       -1.22379708       2.21280503      15.28163147       0.21703365    -608.65448354      -1.34074508       0.55947929      -0.66165868
H        7.69447041       7.00140953       9.63064766       0.07219765    -608.91361592       0.69877898       0.37729882      -0.84106807
H        8.16980553       7.87694979      12.67405319       0.17602052    -608.79740579       1.35131504      -0.77348136       0.16137033
H        1.48952854      11.54782486      10.16344929       0.05506019    -609.29068569      -0.42718868       0.66617243       0.40212918
H        0.75958866      -0.66373956       8.69548607       0.05216362    -609.33619768       0.44405813      -0.55715553      -1.92436787
H        7.67116785       5.26072788       9.30864620       0.06059306    -609.12772198       1.47943668      -0.63665484       0.54630808
H        5.42502213       6.97626495       8.80494595       0.08295143    -608.93398900       0.62025409      -0.68248773       0.00296298
H       10.86927032       0.18126366       8.70757389       0.06737908    -609.10607350       1.15559062      -0.02106998       1.35503412
H       10.09457684       4.63656425      11.60365009       0.19487290    -608.89246496       0.19076779      -0.99194112      -1.31863742
H       11.60612011      12.87018871      10.52792645       0.05307142    -609.14160808      -0.01556396       0.57115397      -0.38700129
H        5.56895638       5.13204861       9.14436626       0.09507287    -608.94851302       0.38540145       0.27745163      -1.50184169
H       11.53232861      11.22196484      10.01758194       0.06781289    -609.00098054      -0.02858594       0.71845676      -0.61244723
H        7.39219141       6.45022345       2.36274338       0.05032563    -608.99521740      -0.24054306      -0.24395759       0.50627015
H        1.71330512      -1.13198841       3.22949290       0.02881991    -609.25472375       0.28586773      -0.65493871      -0.21107258
H        7.30074453       5.01211357       3.43810964       0.05485033    -608.94830278      -0.40494717       0.09223765       0.38539615
H        1.78438222      12.45601559       4.39975739       0.03076939    -609.25230520      -0.04680291      -0.17970199       0.20375136
H        8.22345924       6.40171099       3.88676071       0.04964867    -609.00942546       0.45769865       0.10559326       0.37497801
H        1.64167881       0.62494707       2.73221040       0.03517978    -609.22143072      -0.29837076      -0.79446862       0.15128437
H       12.15745735      12.95773888       3.32476902      -0.00338819    -609.39475924      -1.13899417       1.12109338      -0.11819208
H        5.61806870       6.04810143       4.51625443       0.05589847    -609.33200972      -2.26693647      -3.33643589       2.56424692
H       11.99748135      11.37992287       3.86168814       0.00801614    -609.35409651       0.49582492       0.39537399      -0.43172276
H        7.67687559       4.54726648       1.98150384       0.23945548    -608.30577335       0.17785444      -0.49588551      -1.57835349
H        5.46955299       7.18069792       3.50223541       0.05239936    -609.26313651       0.46792295       0.11631735      -0.39772838
H       11.87006187      -0.62364775       2.21902108       0.00019287    -609.39574711      -0.33519161       0.09378173      -0.67255538
96
Lattice="12.299111366271973 0.0 0.0 0.397482693195343 12.292691230773926 0.0 0.0 0.0 12.580405235290527" Properties=species:S:1:pos:R:3:initial_charges:R:1:energies:R:1:forces:R:3 original_dataset_index=196 energy=-58452.712758198766 pbc="F F F"
Pb      10.10470009       9.94012165      12.26156616      -0.10893757    -606.84765020      -0.43793893      -0.38300137      -1.30064997
Pb       2.52011585       2.73384523      12.24433899      -0.13267313    -606.85639736      -1.74662320       0.78105625      -0.34840973
Pb       3.73130393       8.80512238      12.49163532      -0.12771848    -607.26323147       0.03190515      -0.43811476       0.38564207
Pb       8.49689674       3.50857711      13.01210499      -0.11669857    -606.92448638       0.56075667       0.44426183      -0.96780376
Pb       9.45052719       8.75259304       6.08047915      -0.13661635    -607.44874003       0.10279762      -0.38328039       0.82887209
Pb       2.82851863       3.28020978       6.03914165      -0.12786449    -607.25977637       0.07358614       0.72147297      -0.04053780
Pb       9.49553585       2.59458947       6.77535725      -0.14102823    -607.40448392      -0.48630619       0.47434681      -0.01624576
Pb       3.37486053       9.80501461       6.39556932      -0.13221550    -607.24341689       0.25783199      -1.04387655      -0.57775991
I       10.25981617       8.39529228       9.08039856       0.15752502    -608.50999807      -0.32737478       0.34562285       0.20213728
I        3.62032342       3.31261158       9.56530571       0.13933800    -608.66345684       0.29393246      -0.17246565      -0.82762199
I        9.15744877       2.71845841       3.29768109       0.08516298    -607.99318437       0.38641603       0.45078640       0.82499203
I        4.54847813       9.46089458       3.03118014       0.15059410    -608.60054992      -0.43909760       0.22904353       0.17774673
I        2.25382924       3.32371879       2.95237088       0.14149396    -608.45565891       0.13082194       0.04195095       0.61083723
I        9.68386936       9.19520473       2.66475749       0.07678996    -608.34602200       4.32873003       6.29865112       4.54789813
I        3.49534559       9.53423595       9.42558575       0.11928264    -608.58809073       0.01439717      -0.09923993       0.22633138
I        9.38933277       3.26414418       9.72888470       0.13662499    -608.65963930       0.06951068      -0.11488611       0.34654522
I       -0.62884957       2.17657828      13.01847744       0.05114328    -607.33806760       0.47685379       0.60064575      -1.78326281
I        6.71535492       8.51512814      12.53238869       0.14944160    -608.46474812       0.30270077      -0.13922671      -0.43941289
I       10.29075527       5.99523163      -0.11994906       0.14325292    -608.40553178      -0.30587448       0.24646322       0.28821367
I        3.92705178      12.08171082       0.07585076       0.10525816    -608.35955758       0.72367939       0.35996374       0.17775688
I       12.68323898       9.75617313       5.87786293       0.13471457    -608.62925912      -0.27662364       0.38745706       0.14160177
I        6.59265137       3.82494211       6.45382881       0.14904225    -608.34886826      -0.04683880      -1.12770858      -1.04803485
I        2.92249560       6.52676296       5.81691647       0.14837271    -608.58890459       0.24571812      -0.19908903       0.25947555
I        8.42695045      -0.42056972       6.13319731       0.13152231    -608.57437479       0.16799869       0.05542390      -0.28439130
I       12.96537971      10.20508671       0.23789035       0.12417597    -608.59722632       0.12117236       0.13900820      -0.04471965
I        5.44338751       3.56067371       0.26762572       0.10347578    -608.35429266       0.04634125      -0.18422422       0.23606819
I        1.95732999       5.75952291      12.66697216       0.14816442    -608.46874166       0.21648312       0.61161102      -0.42107282
I        8.34490013       0.38807288      12.78106403       0.12880895    -608.48244186      -0.27049263      -0.54502778      -0.00396684
I        0.11813207       1.96388924       6.43838596       0.13258040    -608.53913663       0.28745696      -0.29173989      -0.02259755
I        6.67165852       8.46713829       7.17133331       0.13667102    -608.34826280      -0.39940496       0.92357245      -0.70294376
I       10.53402805       5.60405254       5.92764568       0.14718851    -608.63620846      -0.19974292       0.16115496      -0.20937616
I        4.16568804      12.68036270       6.15806675       0.12071896    -608.51532382       0.54667163      -0.05861588       0.26201844
N        6.17539358       6.67347097       4.18710423      -0.05550123    -609.77747004       0.30767208      -0.72308129       1.78757310
N       12.45089340      12.02202892       3.17127109      -0.15133232    -609.75816575      -0.54267938       1.25217004      -0.85084187
N        0.71814376       6.84910107       8.64976597      -0.06378483    -609.64551550       1.65425220       0.16676543      -0.40808991
N        5.47893429       0.11243551       9.69021034      -0.14103524    -609.79414775      -0.95584577       2.45163064       0.01573015
N        7.33802605       6.00921917       8.96304321      -0.07687516    -609.63674881      -1.66683450       0.22571106       0.60942744
N        0.65276873      -0.10547754       9.53579521      -0.06295582    -609.83015002       0.84121661      -0.22492691      -0.91792708
N       12.03431225       6.42040539       2.80983734      -0.15761305    -609.69278053       0.17069337      -0.83177225      -1.63777978
N        6.83067703      12.27608109       3.27072787      -0.13235983    -609.86541700       0.56879158      -0.61030823       0.36464383
C        6.02433586       6.03097010       8.61485004      -0.04745204    -609.58287865       3.05447004      -0.10627441      -0.13493575
C       11.94861698      12.27765179       9.69450283      -0.11142415    -609.96354678      -1.89947360      -1.11060583      -0.16849524
C        0.67533952       7.52935886       3.03200507      -0.11891885    -610.02217414       0.61259740      -1.22548973       1.14702097
C        5.69803905       1.24853837       3.11882186      -0.12451425    -610.11325167       1.37536289       1.02273312       0.04402940
C        7.30701828       6.13946104       3.47365761      -0.11512364    -610.05165146      -0.68977296      -0.27607075      -1.05588231
C        1.21174574      -0.17717205       3.40393877      -0.12003892    -610.01487486      -0.53489522      -1.02379103       0.20017873
C       12.78760338       5.44070673       8.81984138      -0.11672959    -609.91448442      -1.42241480      -1.98326780      -0.90413994
C        7.31388474      12.48318863       9.33344460      -0.11411866    -610.06882776      -0.88999978      -0.21645208       0.01829959
H       13.49460793       4.76641178       9.36796856       0.06748095    -609.03821051       0.12556774       0.77853417      -0.33119536
H        7.31438637      12.88467407       8.33885670       0.02887050    -609.18544517       0.42761222      -0.26581220      -0.73093618
H       11.83152199       5.28606653       9.35519409       0.06415265    -609.09185022       0.07529190       0.23556530       0.11892365
H        7.84358549      13.15988731       9.96018600       0.03643657    -609.23356793       0.17390318       0.76787288       0.77578586
H        0.25062615       4.95793962       7.83262300       0.05206035    -609.11246329       0.46350782       0.30085970       0.58080038
H        7.72345924      11.50526142       9.48290634       0.04100857    -609.18477138       0.48637860      -0.68188159      -0.44160647
H        0.22350802       8.26423550       3.64394140       0.03435216    -609.18525376      -0.90427308       0.87921791       0.28074865
H        5.12136936       1.51407933       3.98270082       0.03945977    -609.19009487      -0.41538713      -0.31478022       0.63486150
H        1.11478007       7.96585703       2.15490961       0.02847643    -609.18821540       0.14824524      -0.25615972      -0.48192453
H        5.04183817       1.14136553       2.27072120       0.02736576    -609.21412836      -0.06638609       0.40530678      -0.48736812
H       13.67821121       7.09084463       3.76614046       0.04105772    -609.20681334       0.46954032       0.30551322      -0.71715296
H        6.48677826       2.04930472       3.07828307       0.03418417    -609.14952200      -0.84412407      -0.37794211      -0.58310272
H        4.94912004      14.03300953      12.81350136       0.19711250    -608.71663081       0.58800225      -0.22264197       0.08898945
H        5.26562405       0.18364637      10.70058727       0.00935230    -609.42833893       0.15779239      -0.18428748      -0.01370081
H        1.46825659       7.06087971       7.94363499       0.05547133    -609.22631542      -0.94240766      -0.58173501       0.01947594
H        4.94359446       0.94507408       9.24682522       0.01384661    -609.41032622       0.59400955      -0.87955715       0.70747805
H        1.24567294       7.07380581       9.46612835       0.04842232    -609.29421276       0.13940088       1.02897050       1.36741904
H        4.98601675      -0.70479763       9.36360931       0.00654540    -609.44072145      -0.23518590      -1.00890140      -0.34759726
H       12.49234772       5.55698204       2.42945170      -0.00184924    -609.40897810       0.26897014       0.49663945       0.13727418
H        7.46580172      12.30021191       4.17394638       0.01423579    -609.39749141      -0.68646310      -0.36091307      -1.37114582
H       -1.05571353       6.54332352       2.15107822      -0.00154708    -609.34245823      -0.01134315       0.40216019      -0.37828513
H        7.39600086      12.09489918       2.36389232       0.01692657    -609.42761783      -0.44715679       0.19812506       1.33586588
H       11.62936020       6.12501526       3.67592335      -0.01193478    -609.48822335      -0.57433454      -0.31501550       1.64753980
H        6.12052298      11.50611782       3.36206985       0.00498373    -609.48698170       0.48716996      -0.12060066      -0.00544271
H       -1.46055448       2.06011558      14.39024353       0.16289091    -609.01181140      -0.88954307      -0.91894926       2.25874822
H        7.84788609       6.86517477       9.21156883       0.06077467    -609.15304620      -0.66432227       0.52132789       0.59453077
H        8.97505665       8.21295452      14.59438610       0.28224236    -608.37843346      -4.67518835      -6.32199131      -4.04568742
H        1.48437643      11.67585087      10.29316616       0.04510400    -609.29141784       0.42730892      -0.17073106      -0.28169686
H        0.97523415      -0.39346841       8.56785297       0.04824159    -609.31179110      -0.50352434       0.16945163       1.74405829
H        8.03594398       5.25657034       9.11415768       0.08590259    -609.07640116      -0.93953040      -0.75158676      -1.05717949
H        5.40708685       6.86885262       8.85000610       0.08704396    -608.91271121      -0.15257838       0.76178276       0.51884870
H       11.14335823       0.25664911       8.74019432       0.06671552    -608.97007345      -0.40855212      -0.10656601      -1.01799969
H       12.52102280       3.02852750      11.39778709       0.20523161    -608.67279166       0.95839467       0.09203365      -0.86774777
H       11.64661980      13.18597889      10.24251080       0.06558447    -609.04617758      -0.04837816      -0.53194581       0.86347632
H        5.64876890       5.35112953       7.82535458       0.06637847    -609.01545050       0.11545264      -0.29329333       1.21639386
H       11.29095554      11.25117588       9.95990086       0.07357713    -609.02388805       1.42264987       2.07606855      -0.14371468
H        7.26561260       6.54864025       2.41291285       0.06063661    -609.03714805       0.40332612      -0.43490724       0.94174100
H        1.62805986      -1.12402666       3.07857251       0.03367012    -609.22569176       0.11448698      -0.42676834       0.01041130
H        7.20508337       5.03589249       3.40904093       0.06875890    -608.99167534       0.23487563       0.03616561      -0.24269316
H        1.78609884      12.22605324       4.45765686       0.02114441    -609.24526511       0.10252605       0.33873175       0.44692063
H        8.28551674       6.32352686       3.93773413       0.05632568    -609.07884815      -0.05975084       0.16565225       0.08379197
H        1.65310526       0.55613136       2.79991198       0.03402417    -609.19237488       0.57305823       1.37550515      -0.63848980
H       11.81170464      12.84110451       3.35935593       0.01168259    -609.38698967       0.94249224      -0.38251922       0.12513878
H        5.90430689       6.12008905       5.10418653       0.06291956    -609.14209421       0.26779796       1.41741752      -2.68969084
H       12.16066265      11.26733017       3.76179814      -0.00130735    -609.40885705      -0.67815920      -1.11447198       0.92528878
H       10.40509892       4.17196655       2.48097324       0.23049234    -608.38831292      -0.19512910      -0.19917594      -0.08009940
H        5.46223354       7.01499462       3.54058242       0.04855350    -609.24492968      -0.27287249      -0.35262069       0.89263386
H       11.90853405      -0.54465044       2.17925787      -0.00156115    -609.35696168       0.01424482      -0.05611109       0.05117238
96
Lattice="12.299111366271973 0.0 0.0 0.397482693195343 12.292691230773926 0.0 0.0 0.0 12.580405235290527" Properties=species:S:1:pos:R:3:initial_charges:R:1:energies:R:1:forces:R:3 original_dataset_index=197 energy=-58453.9847239834 pbc="F F F"
Pb      10.10623455       9.93760204      12.25887489      -0.11156736    -606.87614209      -0.52064505      -0.39494214      -1.28929885
Pb       2.51536345       2.73222351      12.24502087      -0.14184703    -606.76944408      -1.50456818       0.78695790      -0.32656883
Pb       3.72900295       8.80815887      12.49215317      -0.12808937    -607.25321313       0.05623451      -0.56282194       0.39158813
Pb       8.49858189       3.51038241      13.00870514      -0.12378215    -607.11281208       0.48995390       0.43433624      -0.71604371
Pb       9.45324039       8.75120544       6.08184719      -0.13692594    -607.45558699       0.12007636      -0.33838038       0.82454228
Pb       2.82974076       3.28510141       6.03936863      -0.12777433    -607.25516913       0.07016811       0.68454668      -0.04259836
Pb       9.49327850       2.59730887       6.77421999      -0.14210610    -607.43322115      -0.55420971       0.47529904      -0.07669615
Pb       3.37619805       9.80001354       6.38950396      -0.13130498    -607.24289459       0.24369384      -0.99192721      -0.54935064
I       10.25699043       8.39715195       9.08048916       0.15658182    -608.52565502      -0.32708776       0.30164498       0.15868969
I        3.62040043       3.31457090       9.56198502       0.14180268    -608.62280021       0.36713744      -0.11974238      -0.91905336
I        9.16133118       2.71504688       3.30581021       0.10605665    -608.15344119       0.51764109       0.18845855       0.52858420
I        4.54623652       9.46491146       3.02969074       0.15030724    -608.60248141      -0.41416598       0.18176499       0.21528129
I        2.25405622       3.32150364       2.95476317       0.13861036    -608.48668629       0.12272747       0.05512509       0.64844504
I        9.68394375       9.19709587       2.66530633       0.07796385    -608.32817113       1.56687673       2.64695921       1.63434846
I        3.49763417       9.53089237       9.43507862       0.12021701    -608.59299915       0.00610387      -0.08085927       0.18812424
I        9.38711071       3.26654267       9.73458862       0.13696299    -608.64830888       0.03378559      -0.08619385       0.25183496
I       -0.62646788       2.17657471      13.01853848       0.06130864    -607.55783312       0.76925335       0.76207357      -1.80414969
I        6.71623516       8.51804733      12.53455639       0.15108547    -608.46549324       0.27654536      -0.13401133      -0.42974014
I       10.29211140       5.99520397      -0.11876277       0.14754638    -608.41674239      -0.29983860       0.34434570       0.16441730
I        3.93093729      12.08454514       0.07356886       0.09460609    -608.35962098       0.69171072       0.36359997       0.30159648
I       12.68005180       9.75591278       5.87914228       0.13448316    -608.63097978      -0.26582041       0.38482531       0.14901770
I        6.59415865       3.82060957       6.45283699       0.15086974    -608.35681802      -0.02108900      -1.15724913      -0.95508954
I        2.92540026       6.52175713       5.81730223       0.14602128    -608.59905630       0.26721179      -0.19014144       0.27114062
I        8.43280506      -0.42298752       6.13296461       0.13309965    -608.58097033       0.17424388      -0.00510367      -0.25155492
I       12.96617699      10.20367813       0.23900332       0.12356763    -608.60462814       0.19821827       0.17739715      -0.04264168
I        5.44704676       3.56268144       0.27107164       0.11793496    -608.38479872       0.23319541      -0.09951893       0.29650655
I        1.94638407       5.76371288      12.66420650       0.14813025    -608.48998574       0.26437421       0.63092477      -0.38941097
I        8.34048557       0.38780436      12.78302193       0.12868221    -608.48566309      -0.26508628      -0.65425564      -0.02835767
I        0.11573955       1.96662474       6.43660641       0.13328919    -608.53450733       0.32271826      -0.28889634      -0.03005750
I        6.66894579       8.47070312       7.16937017       0.13418601    -608.36290804      -0.44878943       0.91920940      -0.62272976
I       10.53199482       5.60299349       5.92445421       0.14585799    -608.63214490      -0.20393446       0.19674974      -0.08840542
I        4.16800880      12.68341923       6.15700197       0.12102577    -608.52053051       0.53515985      -0.10946222       0.28213594
N        6.18675947       6.67247438       4.21189737      -0.05436118    -609.80353037      -0.61714209       0.13287422      -0.29251656
N       12.44337082      12.02429771       3.17181420      -0.14847320    -609.80114204      -0.60269835      -0.05004789      -0.60626781
N        0.72039288       6.85190868       8.65275192      -0.06296935    -609.63806794       1.79871967       0.04130663      -0.71259314
N        5.46636343       0.10047630       9.68741894      -0.14090061    -609.78022950       0.43966229       2.93872913       1.03087571
N        7.32387781       5.98765850       8.93357182      -0.07963321    -609.67619340       0.84111684       0.23092015       1.00216522
N        0.65519357      -0.10894344       9.54859829      -0.06353036    -609.85493978       0.68505628       0.00648249       0.10330662
N       12.03025627       6.40752745       2.82804585      -0.16296400    -609.73634336       0.41375189      -1.42371367      -0.60757985
N        6.82171869      12.27395439       3.25923181      -0.13318563    -609.86961380       0.04105068      -0.48887748      -0.46742294
C        6.04696226       6.01715088       8.58121586      -0.05240437    -609.66173521       1.97524734       1.06522696       0.21262920
C       11.95240879      12.28450203       9.68574905      -0.11208312    -609.93281557      -1.90180195      -1.16742135       0.63626751
C        0.67256552       7.51299238       3.03479552      -0.11528678    -610.04529641       0.95665401      -0.28877853       1.57839551
C        5.68541336       1.24876821       3.11771202      -0.12243157    -610.15518254      -0.86721979       0.23321921      -0.49869144
C        7.30026817       6.13378096       3.46609139      -0.11115291    -610.04084629       0.29444865      -0.07006500       0.57961452
C        1.20732534      -0.18048473       3.40724850      -0.11862776    -610.02249595       0.37570942      -1.01709005      -0.16252803
C       12.78992748       5.44433022       8.82546711      -0.11836548    -609.92178458      -2.72692138      -1.04097004      -1.63326603
C        7.30868244      12.48179626       9.31489944      -0.11399300    -610.04798696      -0.67780577       1.16857471       1.17642615
H       13.48009205       4.86152697       9.38152313       0.06748291    -609.00139115       1.39339925      -0.51615896       0.45350722
H        7.32005024      12.88112354       8.33845329       0.02911848    -609.19276836       0.27023550       0.15225558      -1.28324116
H       11.83807278       5.27002478       9.40006733       0.06594298    -609.09265113       0.28433111       0.34871905      -0.48512992
H        7.86437035      13.16944122       9.97188091       0.03648148    -609.23481964      -0.46543080      -0.03694964       0.00767919
H        0.30098814       4.98951149       7.80425739       0.04966107    -609.11075430       0.26407488       0.14089567       1.09970366
H        7.72900724      11.52875423       9.41362476       0.04161054    -609.19045498       0.73886125      -1.56546667      -0.18151933
H        0.21000604       8.26511574       3.67007852       0.03943285    -609.18826582      -0.37693188       0.16356104      -0.28828159
H        5.10597229       1.50341010       4.01488590       0.04099092    -609.18590745       0.02881843      -0.50148494      -0.11115218
H        1.09456480       7.97138929       2.13359308       0.03354391    -609.18790439      -0.10221871      -0.54295721       0.16083050
H        4.99210691       1.17193854       2.22673965       0.03257380    -609.17375704       0.90480430       0.23659647       0.97098690
H       13.71898365       7.08176041       3.78106713       0.04723586    -609.21331019      -0.22290451       0.57712784      -1.31825995
H        6.44855928       2.01428366       3.06906271       0.03000306    -609.16554008       0.02799289       0.54339785      -0.63311936
H        4.88285303      13.90407467      12.96286583       0.21186757    -608.66513745       0.56872802      -0.30634930      -0.13606615
H        5.28415585       0.20118219      10.71562195       0.01414272    -609.38562886       0.09466771      -0.51646388      -0.59992282
H        1.47578299       6.99167061       7.90934324       0.05463102    -609.22403947      -1.17871910      -0.18954301       0.78616148
H        4.93461895       0.90232176       9.26442146       0.00796902    -609.43585539       0.23012989      -0.02958324       0.28681563
H        1.21885133       7.05732536       9.49751472       0.04821472    -609.30769700       0.27573414       1.20230247       0.89790459
H        5.00238800      -0.69170022       9.33757496       0.00533983    -609.43359183      -0.84259370      -2.07944907      -0.45543019
H       12.50858498       5.53170347       2.46005464       0.00151321    -609.39927067      -0.34211419       0.83257226       0.06784073
H        7.42424488      12.29930782       4.11949587       0.00496673    -609.44572080       0.29467359      -0.15280886      -0.45549946
H       -1.07535207       6.54342461       2.18067288      -0.00173574    -609.35300238       0.26755677       0.07416241      -0.05936826
H        7.35645008      12.06528950       2.34374881       0.01647645    -609.43112028      -0.28429355       0.33178944       1.29870180
H       11.66497803       6.08803177       3.73928785      -0.00930442    -609.44851102      -0.36099453       0.04463818       0.38404553
H        6.16223288      11.49263668       3.40811920       0.00531959    -609.48513763      -0.19171257      -0.38268202      -0.15276191
H       -1.49508822       1.92900121      14.33448505       0.16843492    -609.17018934      -1.33295686      -0.70434868       2.35484614
H        7.87341595       6.86828470       9.17010498       0.06819357    -609.05664929      -1.25592587      -0.58542214       0.54270471
H        8.89100838       8.03535175      14.71071911       0.20858639    -608.71472990      -1.93309504      -2.55302212      -1.13719840
H        1.56481087      11.69359684      10.27806854       0.04754601    -609.28458227      -0.19046086       0.01945574      -0.21318518
H        0.97591466      -0.35924315       8.62068653       0.04022215    -609.38252801       0.01278909      -0.18854621       0.08258571
H        8.06029129       5.21456003       8.99372482       0.08879912    -609.03968616      -1.56490370       0.10336687      -1.03478103
H        5.39196253       6.80335808       8.87662125       0.08672109    -608.90416166      -0.08356037       0.99076344       0.76460159
H       11.10214520       0.24639149       8.75793934       0.06695794    -608.98607614      -0.15364215       0.04232354      -1.49425802
H       12.92314339       2.78848600      11.36090565       0.21465924    -608.83978719       0.47700510      -0.06793657      -0.60687307
H       11.66765881      13.19221497      10.23199940       0.06221493    -609.04728604      -0.16718074      -0.38528283       0.97680756
H        5.62402582       5.48663044       7.75442362       0.07412500    -608.91747664      -0.09913186      -1.47627773       0.22434452
H       11.26613235      11.29207611       9.95226097       0.07584661    -609.00104939       1.54712917       1.78549780       0.00987238
H        7.30310440       6.58030415       2.45355058       0.05306446    -609.07541643       0.08440335      -0.32530719       0.16209353
H        1.65839052      -1.14130914       3.05588365       0.03804681    -609.22150360      -0.37272846       0.43760989       0.33220319
H        7.26131248       5.02672005       3.40700841       0.06920984    -608.98608875       0.00158724       0.10880215      -0.33651388
H        1.80437469      12.22250557       4.47064400       0.02417118    -609.25067985      -0.06697452       0.21992614       0.01069148
H        8.28249454       6.33830261       3.97578025       0.05728476    -609.07259267      -0.58738416      -0.06832303      -0.23940365
H        1.65489876       0.58373213       2.80725837       0.03638579    -609.19702711       0.21367455       0.78358225      -0.20522093
H       11.81483746      12.84478474       3.40149927       0.01263914    -609.39275038       0.93474942      -0.52898681      -0.14970532
H        5.92936039       6.18143654       5.12109137       0.05599333    -609.21136445       0.16375916       0.69758995      -1.88778514
H       12.16745663      11.23583984       3.77571297       0.00134594    -609.40498723      -0.40839311      -0.22414599       0.27299543
H       10.76761723       4.20130730       2.52133346       0.25520265    -608.20107066      -0.16182738      -0.20650335      -0.21955388
H        5.41602802       6.98203421       3.55504918       0.05065673    -609.23370553       0.81866447      -0.66840613       1.67432617
H       11.92406654      -0.57160574       2.15864706       0.00316320    -609.35661217      -0.08131259       0.37438890       0.77866110
96
Lattice="12.299111366271973 0.0 0.0 0.397482693195343 12.292691230773926 0.0 0.0 0.0 12.580405235290527" Properties=species:S:1:pos:R:3:initial_charges:R:1:energies:R:1:forces:R:3 original_dataset_index=198 energy=-58454.026665889 pbc="F F F"
Pb      10.10774422       9.93492699      12.25583267      -0.11629649    -606.96124082      -0.57513164      -0.38814918      -1.22309099
Pb       2.51014185       2.73068857      12.24561787      -0.13686277    -606.53577281       0.52722528       1.01439160       0.60535358
Pb       3.72663522       8.81120396      12.49276161      -0.12802714    -607.23879466       0.12454051      -0.70186700       0.41200627
Pb       8.50038624       3.51232553      13.00505543      -0.13054910    -607.24199346       0.26946444       0.42905511      -0.59410932
Pb       9.45608902       8.74969387       6.08340788      -0.13819589    -607.47758129       0.16408648      -0.26380644       0.83005423
Pb       2.83102107       3.29029822       6.03959846      -0.12807846    -607.25853722       0.05383255       0.65395720      -0.04054354
Pb       9.49084949       2.60021877       6.77302122      -0.14341377    -607.46355867      -0.56305215       0.43568938      -0.10074133
Pb       3.37763071       9.79465866       6.38311720      -0.13039607    -607.24090522       0.23225879      -0.94358568      -0.54291016
I       10.25397110       8.39915466       9.08063984       0.15685770    -608.53349819      -0.32588630       0.28569155       0.11883420
I        3.62058711       3.31657314       9.55829430       0.14638229    -608.52254589       0.42863595      -0.10087773      -0.88504911
I        9.16558552       2.71168780       3.31438589       0.11721542    -608.23613147       0.55743303       0.22121818       0.40279871
I        4.54380512       9.46913052       3.02821159       0.14990905    -608.59522012      -0.36913215       0.15771137       0.27166481
I        2.25431824       3.31923676       2.95744181       0.13863388    -608.54113340       0.09326465       0.11551001       0.67678109
I        9.68445206       9.19978905       2.66636395       0.08530322    -608.29323428      -0.85280686      -0.95189782       0.10417323
I        3.50001645       9.52740097       9.44498062       0.11872835    -608.60010811       0.02288782      -0.03052421       0.15327972
I        9.38479710       3.26902390       9.74056625       0.13977657    -608.64286388      -0.01384772      -0.06559579       0.12132587
I       -0.62375081       2.17657375      13.01822376       0.07879126    -607.94566576       0.42024515       0.14438104      -0.81109526
I        6.71721363       8.52103806      12.53669262       0.15167190    -608.45386381       0.22612184      -0.14463015      -0.39156169
I       10.29344368       5.99528885      -0.11747447       0.15077063    -608.41968876      -0.31199797       0.43369910       0.19468201
I        3.93516159      12.08765221       0.07125900       0.08630160    -608.35920314       0.58343270       0.49032199       0.35217117
I       12.67665672       9.75574112       5.88051224       0.13347885    -608.63082985      -0.26508402       0.37940668       0.13270096
I        6.59574175       3.81576920       6.45153809       0.15185444    -608.34990631       0.00520814      -1.20646645      -0.90150356
I        2.92848825       6.51652622       5.81776285       0.14531863    -608.60196684       0.27024165      -0.16572488       0.26576238
I        8.43892860      -0.42547879       6.13263702       0.13435079    -608.58432821       0.18901516      -0.04335604      -0.26354496
I       12.96704102      10.20225048       0.24016084       0.12452435    -608.61539967       0.24844858       0.18792996      -0.03246188
I        5.45096350       3.56465387       0.27475652       0.12857355    -608.33786050       0.61678299      -0.02650171       0.40042217
I        1.93511724       5.76827145      12.66123199       0.14728573    -608.52869113       0.25777050       0.60008332      -0.36466602
I        8.33581161       0.38734254      12.78505707       0.12918852    -608.49877462      -0.26991870      -0.73850215      -0.08936744
I        0.11332750       1.96938467       6.43474627       0.13421445    -608.52743833       0.33280871      -0.28346953      -0.01469216
I        6.66600513       8.47468472       7.16714525       0.13241480    -608.39456432      -0.49081933       0.93459034      -0.54160815
I       10.52983761       5.60196066       5.92112160       0.14393893    -608.61872085      -0.16931572       0.22984562      -0.05225062
I        4.17056751      12.68654823       6.15597677       0.12085967    -608.52234614       0.53091187      -0.17194598       0.30130172
N        6.19651079       6.67178822       4.23707914      -0.05780139    -609.81406757       0.58746556       1.59358474      -4.30415447
N       12.43412304      12.02658653       3.17062902      -0.14663778    -609.83054235       0.15708027      -2.11481130       0.32221761
N        0.72755468       6.85493135       8.65387630      -0.06222921    -609.65017955       1.40910916       0.10945516       1.18516589
N        5.45442629       0.09556972       9.68723011      -0.13843407    -609.81410472       0.72793584      -0.50185560       0.24393559
N        7.31104088       5.96571493       8.90534306      -0.08276336    -609.70291722       2.59683293      -0.37748171       0.96474324
N        0.65921384      -0.11282916       9.56199360      -0.06474721    -609.84424397       0.20357304       0.38935747       1.75681582
N       12.02690506       6.39050913       2.84505582      -0.16735888    -609.76007426       0.27486409      -1.07760121       1.18708406
N        6.81265259      12.27038097       3.24601579      -0.13593283    -609.83342826      -2.01520114      -0.46943954      -0.91932025
C        6.07643700       6.00663328       8.54680347      -0.05751333    -609.76682267      -1.15233953       2.39339203       0.20308858
C       11.95122910      12.28868961       9.67841625      -0.11411545    -609.91692848      -1.72226975       0.11129261      -0.17029527
C        0.67263180       7.49518538       3.04255128      -0.11420130    -610.04907858       0.47350657       0.94492569       1.42316772
C        5.66994476       1.24990737       3.11513472      -0.12292669    -610.15290108      -1.91840704      -0.49543323      -0.04188512
C        7.29421234       6.12742805       3.45993543      -0.11271381    -609.98285357       0.62476149      -0.10599004       2.45656078
C        1.20418000      -0.18687221       3.41008663      -0.11660007    -610.01486999       1.23930564       0.12006457      -0.62062042
C       12.78396225       5.44496584       8.82645607      -0.11828340    -609.93853335      -2.06430916      -0.35115230      -0.51667302
C        7.30112600      12.48393536       9.29920864      -0.11011817    -610.05843384       0.31773000       0.58254285       0.65472978
H       13.51298618       4.94457626       9.41026878       0.06384658    -608.98243258       1.27054983      -0.79467667       0.34411761
H        7.33591938      12.88275433       8.29212379       0.03207973    -609.20885973       0.00750143      -0.01260873      -0.22764881
H       11.85660744       5.26354694       9.43135452       0.06321809    -609.09677049       0.11007075       0.26477225      -0.66636805
H        7.86864710      13.17733002       9.98247242       0.03925126    -609.23226419      -0.74424992      -0.53027595      -0.48480575
H        0.36424258       5.02713060       7.81323195       0.04508402    -609.10882550      -0.04903665      -0.40456311       0.51443739
H        7.76082039      11.49696922       9.33497715       0.04471774    -609.20336365      -0.04118370      -0.14050770      -0.01397758
H        0.18172903       8.27456284       3.68761730       0.04255266    -609.19294791       0.22716805      -0.55194061      -0.80490327
H        5.09146452       1.47430182       4.04394865       0.04090635    -609.17263667       0.36688389      -0.46370055      -0.64837364
H        1.06913066       7.95806074       2.11527181       0.03749296    -609.18574053      -0.27142396      -0.61938208       0.47790272
H        4.97372103       1.21378422       2.21682239       0.03578057    -609.10267543       0.95138727      -0.04625215       1.20290286
H       13.75448418       7.09226894       3.75014615       0.04393952    -609.22694203      -0.28066590       0.39500314      -1.05860292
H        6.40778875       1.99549878       3.03780818       0.02840391    -609.17480543       0.77866333       1.26693450      -0.54072182
H        4.82881021      13.76417351      13.10854721       0.21696360    -608.67829122       0.48126446      -0.38948966      -0.35214813
H        5.30661249       0.20275162      10.71099186       0.01473923    -609.37828165      -0.05643106      -0.68110293      -0.35736982
H        1.44068432       6.91283512       7.90121078       0.04798053    -609.27044461      -0.29355705       0.45912593       0.49148038
H        4.93384552       0.85739094       9.29257202       0.00492604    -609.47285235      -0.63026905       1.29160950      -0.51715327
H        1.20020592       7.08092785       9.56105709       0.05117445    -609.27405926      -0.33533991       0.74629205      -0.97520545
H        4.99001312      -0.75351036       9.29214001       0.00835214    -609.40581922       0.19679179       0.05247537       0.70833034
H       12.52019596       5.53889608       2.49362278      -0.00107443    -609.39311617      -0.25345299       0.32924621      -0.32022722
H        7.39032745      12.29294109       4.04687595       0.00331703    -609.45677428       1.86723331       0.20061159       1.41765043
H       -1.08461905       6.54886818       2.21136189      -0.00191014    -609.38741525       0.36459925      -0.13527777       0.08727482
H        7.30334759      12.04625797       2.37151217       0.00749561    -609.46160438       0.49066133       0.09393224      -0.06884606
H       11.68831921       6.05239153       3.82049394       0.00055498    -609.38196132      -0.10073647       0.52691843      -1.09875430
H        6.19795895      11.46535873       3.45115972       0.00901546    -609.44840159      -0.54749258      -0.22795397      -0.33818445
H       -1.56722164       1.77430463      14.33149529       0.16367307    -609.23838262      -0.21634827       0.09916735       0.59249797
H        7.85443115       6.84777451       9.14774513       0.07078596    -608.98989423      -1.04102692      -0.79583206       0.71036592
H        8.73777962       7.75841522      14.78833485       0.20131108    -608.70575628       0.54613585       1.12377536       0.30679793
H        1.64174485      11.71367168      10.25657654       0.04836009    -609.28006696      -0.72399445       0.11428039       0.02892368
H        0.97679120      -0.33194861       8.67924786       0.04086862    -609.39558830       0.77351514      -0.58621148      -2.29271930
H        8.03295040       5.17192793       8.83373451       0.08591582    -609.02083419      -1.46624169       0.60227454      -0.70466793
H        5.37324524       6.76724148       8.93508244       0.08804572    -608.89709087       0.77759555       0.05930598       0.37193545
H       11.05253029       0.23682864       8.72382545       0.06438904    -609.03482172       0.69572338       0.00309148      -0.37136512
H       13.36159992       2.54334521      11.31807613       0.22554079    -608.57873223      -2.21813486      -0.47695728      -0.77246891
H       11.68406773      13.18118763      10.25427246       0.05224705    -609.07825021      -0.21943533      -0.19343215       0.68157106
H        5.59260416       5.57530689       7.68918991       0.08089274    -608.87794382       0.12145221      -1.53767177       0.17847415
H       11.29330063      11.39665890       9.94681168       0.06590768    -609.00575102       0.86398782       0.25782917       0.42248686
H        7.34335470       6.60506535       2.50304985       0.04732512    -609.06579413      -0.23243866       0.06863479      -1.02102300
H        1.67511499      -1.14463031       3.04413152       0.04035774    -609.22349349      -0.53268529       0.70778635       0.40662520
H        7.32141781       5.02011824       3.39384818       0.06362320    -608.96164263      -0.22718072       0.14402332      -0.44287862
H        1.82171082      12.22770405       4.48395157       0.02842545    -609.25249714      -0.24144463       0.08966677      -0.45506893
H        8.26215744       6.35238600       4.00395489       0.05570376    -609.02689223      -0.52236395      -0.21259094      -0.34222143
H        1.66053104       0.64088577       2.80877042       0.04178002    -609.19814163      -0.44417310      -0.45593243       0.57722295
H       11.85449600      12.83030987       3.43886065       0.00876925    -609.40905498       0.19176452       0.24047940      -0.12890712
H        5.96165323       6.27029085       5.07254553       0.05696171    -609.27939139      -0.67126847      -1.43198933       2.30308350
H       12.15859604      11.19491196       3.80166817       0.00962013    -609.36557607      -0.06854503       0.86140075      -0.50749022
H       11.11448288       4.20708323       2.56848574       0.26567918    -607.98543973      -0.52467790      -0.74520861      -0.23582163
H        5.39647865       6.92333126       3.62791777       0.04344235    -609.29210187       0.51081264      -0.29948096       0.94005696
H       11.93468189      -0.58787465       2.16438341       0.00449907    -609.36394347      -0.32722594       0.49697092       0.66510809
96
Lattice="12.299111366271973 0.0 0.0 0.397482693195343 12.292691230773926 0.0 0.0 0.0 12.580405235290527" Properties=species:S:1:pos:R:3:initial_charges:R:1:energies:R:1:forces:R:3 original_dataset_index=325 energy=-58452.38808981889 pbc="F F F"
Pb       9.80696487       9.34423542      12.34290028      -0.13706569    -607.07275696      -0.35028265       0.58598201      -1.27597524
Pb       2.72300935       3.18112111      12.23282814      -0.13754417    -607.19872319      -0.59936202      -0.07493086       0.34380546
Pb       3.42855024       8.60347939      12.58703899      -0.11481927    -606.99867956      -0.09392283       0.91563521       0.94463887
Pb       8.73808002       3.71268749      12.74711800      -0.11831272    -607.12796943      -0.25173606      -0.51269404      -0.00897044
Pb      10.02380848       8.74180317       6.25836849      -0.12372608    -607.05641802       0.27016484       0.45974517       0.26976447
Pb       2.92291498       3.26962876       6.37637377      -0.14576064    -607.55499679      -0.08283521       0.35896875      -0.21828088
Pb       9.34111691       2.76181889       6.66177273      -0.14555746    -607.49671441      -0.01728945      -0.38632261      -0.48578611
Pb       3.25963449       9.41141319       6.24865484      -0.15025042    -607.39108128       0.41411859      -0.74594944      -0.39142189
I        9.71958637       8.60726643       9.23892975       0.13735670    -608.48178158       0.07845866       0.07478555       0.17220894
I        3.68993664       3.38526964       9.42478561       0.13301368    -608.60532043       0.37609604       0.00960426      -0.29989015
I        9.56668186       2.62428331       3.38295245       0.13953227    -608.38123777      -0.80731004       0.11844440       0.28579626
I        4.40984678       9.43655968       3.18997073       0.13492391    -608.24749664      -0.46723704      -0.29238926       0.16920407
I        3.03323436       2.85323119       2.93138742       0.15347579    -608.52003441      -0.63576452      -0.11734273       0.32467376
I        9.42576599       9.57189751       2.83158088       0.06902403    -608.08087950      -3.15263556       1.43119155       2.25620574
I        3.66691113       9.03540707       9.37898064       0.13734372    -608.65379601       0.03169852       0.15884960       0.27507184
I        9.10705948       3.34013104       9.63352680       0.13417023    -608.52748487      -0.21500661       0.33824021       0.63545588
I       -0.95116073       1.93611968      12.93481255       0.11667144    -608.26152548       1.37901402       0.20054094      -0.33451444
I        6.67403698       9.11836433      12.34878922       0.15352076    -608.37781993      -0.12328476      -0.18289066      -0.02492560
I       10.01153183       6.45164061       0.18263742       0.11407823    -608.45991526       0.42538345      -0.93373365       0.05069768
I        4.57549095      12.54771805      -0.17935610       0.10253804    -608.45786097       0.13629000      -0.42835646       1.02126868
I       12.80075359       9.95888138       6.86048603       0.12111756    -608.54837884      -0.85728866      -0.14009564      -0.13507887
I        5.97403288       3.01039243       5.95462084       0.13657089    -608.42449180       0.62513674      -0.06917943       0.15399081
I        3.42089868       6.34135056       5.76325417       0.14265223    -608.40922350      -0.24464506      -0.20076323       0.11694055
I        9.06568050      -0.36661673       6.14335680       0.14348176    -608.43024616       0.07125781      -0.04588052      -0.22461961
I       12.76690292      10.03069210       0.04849998       0.12129035    -608.46087401       0.18740497       0.31932221       0.14336916
I        5.42124796       4.01232576       0.49363613       0.13804126    -608.36152834       0.97751117       0.29009732      -0.29391675
I        1.94489563       6.18819523      12.01251411       0.12027258    -608.54657320      -0.32996992      -0.52338761       0.17627729
I        8.38547134       0.14178789      12.21779728       0.11237934    -608.26865993      -0.31396674      -0.24618545       0.06628417
I        0.10590137       2.24777007       6.67277527       0.13800882    -608.49939072      -0.52381883       0.12298975       0.15609207
I        6.51835489       9.42914581       6.75764894       0.09658939    -608.34628119       0.43476137      -0.44459438       0.03600541
I        9.91502857       5.72114658       6.12331438       0.12683870    -608.54701404      -0.20236050       0.27692839      -0.26121632
I        4.06990337      12.25282192       6.41505146       0.13093896    -608.43661661      -0.04823509       0.96455112       0.04316811
N        6.16623163       6.03833389       4.06605339      -0.09007198    -609.61984088       0.79522113       1.90807743       1.22181023
N       12.09790611      11.31622696       3.38797498      -0.16269208    -609.63609269      -1.35933725       2.93527863      -1.42695989
N        1.12496483       6.02346802       8.25416183      -0.05622666    -609.79230408       0.35646761       0.26339378      -0.67519952
N        5.36710930       0.03014552       9.41027451      -0.15373744    -609.80004218       0.04223330       1.01170111      -1.51412879
N        6.84195709       6.90380526       9.60822105      -0.08355931    -609.53869293      -1.52913685       3.32723870      -1.09087793
N        0.66458189       0.50398457       9.61852646      -0.05869288    -609.75594454       0.43010991      -0.25900435       0.15966220
N       12.16108608       4.49433899       2.69244862      -0.14574772    -609.83129008      -0.26512345       0.26362480      -0.74762038
N        6.98567963      11.37948513       2.48143506      -0.07853567    -609.61245548      -0.34398819       3.03340821      -2.38689931
C        6.10976219       6.28201675      10.40734673      -0.05178490    -609.95360261      -1.29265343      -1.16992451       0.45912519
C       12.05640030      12.08535004       9.51368809      -0.11199146    -609.90909487       0.32575853       1.68241566       0.57010930
C        0.32177755       5.69000340       3.38746881      -0.11836116    -610.06213725       0.31756697       0.90301400       1.04814341
C        6.48232746       0.30370626       3.30152440      -0.11538394    -609.81143977       0.41774918      -3.16429998       3.18192590
C        6.07742214       4.83281374       3.66364741      -0.06149635    -609.77645158       0.38168618      -1.42542514      -0.58232169
C        0.12532835       0.26033631       3.73642468      -0.11472820    -609.96932190      -0.21974562       0.56284167       0.17595354
C       12.37703133       5.41611814       9.09671211      -0.10461581    -609.91742491       1.35716279       0.00936189       0.19940302
C        7.22270012      12.41837978       9.07271385      -0.11297315    -610.00591382      -0.03410402      -0.07220764       0.13798382
H       12.44838142       5.83790922      10.12807178       0.06827620    -608.96504858      -0.76264728      -0.06667615      -0.46378188
H        7.40111780      12.29619789       7.98997021       0.02738076    -609.18021055      -0.22862820      -0.20946515       0.29324283
H       11.40654755       5.53482008       8.60758114       0.05086982    -609.09927747       0.00081686      -0.00426182       0.33835829
H        7.58629608      13.42345333       9.32499504       0.03901639    -609.17891284      -0.17198332      -0.11236640       0.18079067
H        0.32681835       4.32465458       9.21481705       0.06669673    -609.03293568      -0.36488131       0.62843511      -0.25249321
H        7.74943638      11.66157722       9.67194271       0.03711166    -609.14897425      -0.02395362       0.16208066      -0.33998279
H        1.14176142       5.41203451       4.04738140       0.03382216    -609.25586412       0.21782343      -0.19215686       0.05727314
H        6.42004395      -0.35961479       4.22469473       0.09194777    -608.85147598      -0.05803915       1.99701198       0.66445312
H       -0.39482120       6.17789459       4.05557394       0.03818102    -609.21475801      -0.44069744      -0.23944289      -0.47573694
H        5.58565092       0.88909346       3.38478684       0.05828074    -609.06279382      -0.75145713       0.26745036      -0.96160833
H       13.01974201       6.39739895       2.68077946       0.03864385    -609.19356043       0.10850332       0.46824162      -0.45896330
H        7.39638901       0.89026809       3.42869759       0.05506992    -609.06122389      -0.02447646      -0.11470302      -0.59125530
H        6.09161806      12.35381699      13.24633789       0.18108170    -608.77313529      -0.37040349      -0.35065864       0.28570331
H        5.13721418       0.37475881      10.34921551      -0.00470920    -609.39882763       0.19243800       0.46072665       0.36626425
H        1.99695861       6.23952246       8.73361111       0.04575184    -609.41475377      -0.06312335      -0.38197966       0.33653330
H        4.80187607       0.58145970       8.69601154       0.00530821    -609.42199928       0.30137660      -0.51960723       0.71357182
H        0.95840514       6.90435600       7.73430347       0.05152452    -609.33928259      -0.72858440      -0.69519135       0.50154273
H        4.97443008      -0.90995705       9.43368626       0.00315927    -609.41551264      -0.05129133      -0.72512971      -0.27376382
H       11.79907990       4.68999910       1.73731422       0.00762239    -609.40146327       0.06315547       0.20726468       0.40317305
H        6.05896664      10.83973598       7.50358963       0.17760307    -608.85080699       0.04340523      -0.20450170      -0.46659065
H       -0.94752342       3.97213006       3.16620588       0.00359921    -609.38507454       0.86498994      -0.08467384      -0.11787369
H        6.35938025      10.61668015       2.71209741       0.02799830    -609.37024884       0.27459861      -0.35630440      -0.06720433
H       13.04925346       3.97060513       2.54991102      -0.00207553    -609.43143050      -0.30270256      -0.93129757       0.18594420
H        7.92773247      11.27775097       2.15188265       0.02333570    -609.31439684      -0.33174350      -0.35104077      -0.52556191
H       -2.20786071       0.51611394      12.92253113       0.13431647    -608.99020417      -0.15077311       0.36147293      -0.21687245
H        6.55817318       7.87953663       9.26865005       0.07107943    -609.09503663       0.66433869      -1.21725878       0.57353210
H        8.39837170       6.76568747      15.55654812       0.06142855    -608.94005181      -0.01204616      -0.09731659      -0.20119814
H        1.70556736      12.50015926      10.36044407       0.06099557    -609.26574195      -1.08401706      -0.14644296       0.82029076
H        1.25628984       0.17037258       8.88120556       0.04988993    -609.39210547       0.18493897       0.02151723      -1.41852954
H        7.66836977       6.51292849       9.28820133       0.06779813    -609.13144133       2.19022404      -0.83751651      -1.13015912
H        5.19513893       6.70614624      10.77770424       0.05968293    -609.22344704      -0.31576582       0.16985092       0.14465145
H       11.68186951      -1.22021925       9.88814640       0.06041537    -609.01524258      -0.22599548      -0.48057686       0.14349450
H       22.49361229      -3.47075343       2.28745270       0.21288836    -608.62370168       3.44798919      -2.25354653      -1.25952741
H       11.72802639      12.10710812       8.47616482       0.05289964    -609.08031492       0.14567243      -0.15678889      -0.24300516
H        6.33003807       5.25044966      10.57351780       0.06102574    -609.15526702       0.20187101      -0.65726233       0.59512671
H       11.30344105      12.72767830      10.01610470       0.05630406    -609.12124575       0.14284632      -0.54628713       0.23699029
H        7.94208384       6.61834145       2.39506173       0.06107584    -608.98907600       0.15279334       0.07847073       0.10735182
H        0.98422861       0.00490826       4.34328842       0.03763436    -609.21282362       0.42688368      -0.11063641      -0.00779154
H        5.15664721       4.43279266       3.14089847       0.07106866    -609.18706929       0.84203783       0.53039801       0.78902699
H       -0.15870434      13.08697414       4.39145327       0.02291068    -609.20289667       0.10278164       0.60588487      -0.15542196
H        7.02139521       4.30996466       3.64438057       0.06426433    -609.12743453       0.07086407      -0.61665991      -0.18965072
H        0.39535895       0.80541849       2.83201551       0.03418556    -609.19646704       0.04583346       0.13219378       0.11245527
H       11.87761688      11.21687317       2.38577962       0.00603580    -609.27572584      -0.52661759       0.50036887      -0.30259495
H        6.91736794       6.49226475       4.65275955       0.07737990    -609.06610976      -0.48768004      -1.21153506      -1.10880770
H       11.25419140      11.25503540       3.95136571      -0.00820440    -609.35099453      -0.30936598      -0.55941194       0.37631271
H       14.52842617       9.05276871       2.10133004       0.26046365    -608.12087139       0.35715761      -0.09419957      -0.56058320
H        5.34882212       6.60007858       4.05672932       0.05378375    -609.17434024      -1.32258956       0.85115585       0.01248992
H       12.34454823      -1.65635419       3.44321895       0.00920737    -609.39961105       2.59591289      -4.00830151       1.13395217
96
Lattice="12.299111366271973 0.0 0.0 0.397482693195343 12.292691230773926 0.0 0.0 0.0 12.580405235290527" Properties=species:S:1:pos:R:3:initial_charges:R:1:energies:R:1:forces:R:3 original_dataset_index=200 energy=-58452.6957517078 pbc="F F F"
Pb      10.11037540       9.92949390      12.24930382      -0.12226041    -607.07774992      -0.70591235      -0.51997160      -0.74839289
Pb       2.50067973       2.72846150      12.24749660      -0.13192067    -606.52622084       1.15258811       2.12231120       1.96818584
Pb       3.72209907       8.81675434      12.49418259      -0.12544996    -607.18917554       0.17947676      -0.98374902       0.43122052
Pb       8.50398540       3.51632142      12.99766254      -0.13429199    -607.34381280       0.13022161       0.38399794      -0.50005655
Pb       9.46175098       8.74658108       6.08680391      -0.14097717    -607.53240480       0.29236234      -0.23135757       0.55990749
Pb       2.83354616       3.30074978       6.04004955      -0.12880789    -607.25433217       0.03914881       0.53746890       0.06125974
Pb       9.48584080       2.60611868       6.77060604      -0.14436197    -607.47617569      -0.48216714       0.37245343      -0.08991664
Pb       3.38054800       9.78375721       6.37037945      -0.12862995    -607.23807483       0.17883286      -0.85993118      -0.52841600
I       10.24786377       8.40326881       9.08108902       0.15774123    -608.49404461      -0.27970011       0.27710693       0.12292690
I        3.62132215       3.32042742       9.55036926       0.13984028    -608.54206310       0.49958207      -0.03986487      -0.92839396
I        9.17439461       2.70533204       3.33144975       0.12267255    -608.37655464       0.32906812      -0.17338902       0.25704245
I        4.53876305       9.47747040       3.02556324       0.15052004    -608.56293660      -0.34557448       0.10152645       0.35492380
I        2.25485373       3.31495619       2.96325994       0.13959725    -608.43503855       0.09177464       0.20032113       0.79403791
I        9.68457413       9.20403767       2.66853833       0.11280876    -608.33802181      -0.86519874      -0.99737890       0.10241306
I        3.50469971       9.52057171       9.46440983       0.11836637    -608.60331448       0.03380701       0.02168190       0.10533425
I        9.38026333       3.27382970       9.75232887       0.14662142    -608.58985138      -0.02387337      -0.08962484       0.03132994
I       -0.61850035       2.17616200      13.01756573       0.09685239    -608.08463303      -0.80051050      -0.82328597       0.87653999
I        6.71926594       8.52674961      12.54053020       0.15310857    -608.42156735       0.03359686      -0.10678630      -0.44741970
I       10.29580116       5.99584055      -0.11477442       0.15299334    -608.41880881      -0.27672681       0.46339285       0.14415819
I        3.94390035      12.09428787       0.06702258       0.07447884    -608.20811642       0.27815924       0.19511656       0.21286141
I       12.66981316       9.75571632       5.88330650       0.13408192    -608.62765493      -0.14186354       0.34671150       0.16738923
I        6.59888124       3.80525517       6.44822598       0.14682139    -608.34777383       0.00078104      -1.29088886      -0.91650892
I        2.93472815       6.50624323       5.81885624       0.14231718    -608.58896592       0.23499131      -0.11128316       0.21401712
I        8.45102501      -0.43032640       6.13174200       0.13128085    -608.57431136       0.14512317       0.03576210      -0.33228020
I       12.96887875      10.19958305       0.24242552       0.12661719    -608.60423830       0.31855723       0.14578598      -0.01745076
I        5.45923662       3.56833339       0.28229356       0.13963734    -608.47727418       0.55181955       0.05269340       0.28402403
I        1.91338229       5.77769852      12.65508175       0.14786206    -608.51949816       0.25187017       0.60050680      -0.42496628
I        8.32643032       0.38585201      12.78897095       0.12686713    -608.50353696      -0.33395715      -0.73627608      -0.12511709
I        0.10890082       1.97454786       6.43107700       0.13256034    -608.51811158       0.36699170      -0.29226831       0.00868422
I        6.65985775       8.48329163       7.16233587       0.13050091    -608.49585234      -0.56918257       0.91091570      -0.37330626
I       10.52551842       5.60015583       5.91460609       0.14410083    -608.60831412      -0.17840111       0.18535950       0.08455895
I        4.17598820      12.69246483       6.15424156       0.12075390    -608.52090906       0.50377316      -0.21557138       0.32369958
N        6.22236729       6.68054390       4.25750589      -0.06082469    -609.91943354       0.17208024      -0.87071163       0.75304748
N       12.42034340      12.01329994       3.17345428      -0.14851533    -609.78183153       1.23214281      -0.76662082       2.05401575
N        0.74930269       6.86086941       8.66865349      -0.06219228    -609.64282961      -0.83865569      -0.41790222       0.47833670
N        5.43614483       0.07910282       9.68457699      -0.13558899    -609.84489557       0.08823621      -0.18265709      -1.89511117
N        7.30588388       5.91690969       8.85585594      -0.09194038    -609.62549523       1.69832012      -2.14892910      -0.26417017
N        0.66974568      -0.11845272       9.59420967      -0.06803288    -609.81257348       0.81627317       0.05880235      -3.17161925
N       12.02170086       6.35165358       2.88885880      -0.17007513    -609.68825745       0.91974062       0.46122849       1.31122223
N        6.77934933      12.25986099       3.21932554      -0.13514480    -609.82725060       0.39606213      -0.79827734       1.71701334
C        6.11407709       6.00977373       8.48046303      -0.06837082    -609.85244080      -4.92366760       2.77262713       0.24369608
C       11.93931103      12.30734539       9.65920067      -0.11555673    -609.89643164       0.27663622       2.14756241      -0.53862565
C        0.67383033       7.47014475       3.06793380      -0.11865679    -610.00960204      -1.05796112       0.71672725      -0.45826723
C        5.62854290       1.24943697       3.11195827      -0.12322496    -610.10842300       2.63565308       0.48184928       1.14326055
C        7.28749847       6.11421347       3.47022128      -0.12672716    -609.72231128      -0.38705976       0.59362735       1.50496605
C        1.20875883      -0.19536655       3.40966463      -0.11797982    -609.99012961      -0.09692342       1.38427880      -0.21177511
C       12.76018238       5.44413280       8.83017731      -0.11822643    -609.90729950       2.33991874       0.22251106       1.95641523
C        7.29044151      12.49025059       9.27042961      -0.11016558    -610.04883432       0.04325548      -1.28212643      -1.57282958
H       13.65689087       5.04628420       9.46742058       0.07400689    -608.93882198      -1.34321028      -0.22945847      -1.02301102
H        7.35939503      12.87752724       8.21680069       0.04069740    -609.18998996      -0.40773209      -0.05849966       0.99445104
H       11.89252853       5.26342440       9.43453789       0.05552939    -609.07620789      -0.88398532      -0.23968490       0.01530177
H        7.80558586      13.14021301       9.95203876       0.03555791    -609.25181376       0.26437465       0.33501844       0.36921571
H        0.47536236       5.03351402       7.84428310       0.04591554    -609.08084938      -0.37413325      -0.84476756      -0.44838389
H        7.79107094      11.46429729       9.19024754       0.05485923    -609.16924489      -0.77513089       1.11501184       0.52842941
H        0.15647413       8.23553562       3.63913751       0.02873025    -609.22172953       0.12429083       0.17233597       0.09138475
H        5.09564590       1.37885475       4.03562880       0.03567836    -609.17752158      -0.26516032       0.31589971       0.37157054
H        0.99245501       7.87415218       2.11974907       0.03200416    -609.20125144      -0.02669730       0.05583307      -0.46183949
H        5.00445461       1.28817213       2.28954172       0.03565560    -609.11213935      -1.33323045      -0.33403679      -1.44851768
H       13.81796265       7.13705778       3.61037517       0.02936811    -609.23798373       0.87542230      -0.47961395       0.62026213
H        6.38946199       2.06091571       2.94035578       0.03219376    -609.15893451      -0.66322255      -0.61363471       0.42538304
H        4.73820925      13.44545841      13.33634090       0.19109492    -608.85498845       0.18807695      -0.10858095      -0.34691746
H        5.34191656       0.13946712      10.69394588       0.01146823    -609.38136785      -0.13918534      -0.36224693       0.44236527
H        1.38673270       6.82696342       7.89166117       0.04580682    -609.28758386       0.81480347       1.13286703      -0.10543169
H        4.87371159       0.89462465       9.29522991       0.01363670    -609.42570857       0.36944376      -0.49730064       0.31254743
H        1.12496901       7.19323587       9.55774879       0.05235400    -609.26056451       0.25433746       0.42590919      -0.52807663
H        5.00261974      -0.82553774       9.29259300       0.01414538    -609.38927431       0.33981577       1.09247544       0.86646721
H       12.53615856       5.55640030       2.51605916      -0.00620211    -609.37591258      -0.04820689      -0.76242152      -0.54968413
H        7.49606323      12.30415630       4.03046656       0.01448353    -609.41719121      -0.54151797       0.16166808      -0.93583780
H       -1.07662904       6.55238104       2.27691841      -0.00572778    -609.42267466      -0.14557402      -0.05638155      -0.25340594
H        7.27907848      12.00415421       2.36389780       0.00784252    -609.47066066       0.31004771       0.08990185      -0.40954458
H       11.72119999       6.03906441       3.85617661      -0.00631116    -609.41388480      -0.36597942       0.12404856      -0.56678742
H        6.21281815      11.40708256       3.49489880       0.01386163    -609.43293699      -0.21460166       0.65769276      -0.51409737
H       -1.70717239       1.50097752      14.32808971       0.17664954    -608.94490646       0.61785441       0.99770105      -0.81897480
H        7.74024057       6.74343348       9.19968605       0.06100235    -608.97482801       0.95417868       0.60113955       1.39522718
H        8.52286720       7.35234642      14.97019958       0.26202232    -608.28558454       0.77023439       1.38298696       0.08983216
H        1.71191311      11.75458241      10.23647594       0.04907244    -609.29242388      -0.65180543      -0.27801335       0.82186915
H        1.03239572      -0.32363617       8.61999130       0.04066700    -609.31681381      -0.59494743       0.38332686       1.41650274
H        7.85882139       5.14757252       8.45998192       0.06248963    -609.05657498       0.52802610       0.32210041      -0.11468350
H        5.43505049       6.68350410       9.07627773       0.08676842    -608.93648376       0.74786207      -0.31052482      -0.48614812
H       11.04667950       0.21511281       8.65925789       0.05906520    -609.07856164       0.98645396       0.06437136       0.74663062
H       13.94960117       2.00374317      11.03257465       0.22757275    -608.33217927      -1.96831878      -1.54638719      -2.44771350
H       11.69341278      13.13447952      10.34587288       0.05105743    -609.05460260      -0.12281565       0.14176081      -0.27619667
H        5.56348419       5.60602999       7.60423660       0.07699204    -608.96139135       0.76684624      -0.60854097       0.95020520
H       11.36426640      11.51965618      10.01477528       0.06651326    -608.96369738      -0.89510406      -2.52204678       0.95297357
H        7.39717054       6.67271519       2.48708367       0.04838453    -609.14059366      -0.42397113      -0.37637499      -0.08458015
H        1.65791082      -1.09676087       3.05488825       0.02919188    -609.25297240       0.33675588      -0.76534330      -0.26823301
H        7.40742159       5.02334309       3.32255149       0.06461626    -608.93925435      -0.61982460       0.04395544      -0.50764829
H        1.82586157      12.24520683       4.46449995       0.02636285    -609.25758052      -0.24274683      -0.08094511       0.14684736
H        8.18890953       6.35967064       4.02554512       0.05935420    -608.87944123       0.76160497      -0.15099726       0.36526169
H        1.61190116       0.68752819       2.87823033       0.03651370    -609.21122367      -0.24896919      -0.43164562       0.03949646
H       11.93200207      12.85363007       3.50185585       0.00321390    -609.40829584      -0.20346353       0.15411806      -0.38664165
H        5.97975874       6.29655838       5.22335958       0.05863572    -609.24860658       1.24860038       0.37050546      -1.54570384
H       12.13532925      11.21527481       3.79651070       0.00448638    -609.37299705      -0.24468194       0.23745724      -0.13117035
H       11.72985649       4.13983727       2.65920639       0.26530907    -607.82457644      -0.03042847      -0.72966420      -0.10365539
H        5.34512901       6.79335880       3.80628967       0.04653475    -609.34639327      -0.81717160       0.02607630      -0.89192512
H       11.91088581      -0.57293260       2.21441102       0.00004033    -609.39091023      -0.59072293       0.12947492      -1.02928002
96
Lattice="12.299111366271973 0.0 0.0 0.397482693195343 12.292691230773926 0.0 0.0 0.0 12.580405235290527" Properties=species:S:1:pos:R:3:initial_charges:R:1:energies:R:1:forces:R:3 original_dataset_index=202 energy=-58452.81718373642 pbc="F F F"
Pb      10.11264992       9.92342758      12.24184227      -0.12183294    -607.09242536      -0.68732788      -0.52327312      -0.67582910
Pb       2.49154949       2.72735357      12.25054932      -0.13243970    -607.11243002      -0.46556353       0.51657409      -1.03205481
Pb       3.71743870       8.82194424      12.49601555      -0.12337811    -607.15094660       0.11444498      -1.01358375       0.46441821
Pb       8.50788879       3.52078342      12.98955727      -0.13503364    -607.38913608       0.21851100       0.35365661      -0.44495625
Pb       9.46790314       8.74312973       6.09077072      -0.14149457    -607.54952949       0.37396822      -0.15576235       0.46530745
Pb       2.83621597       3.31210446       6.04057264      -0.12665933    -607.17263922       0.11019996       0.41101885       0.33772210
Pb       9.48024082       2.61259913       6.76798868      -0.14468625    -607.48697573      -0.44015105       0.33400663      -0.05340814
Pb       3.38374281       9.77172470       6.35662031      -0.12691562    -607.24254778       0.12838372      -0.73430751      -0.48881658
I       10.24117184       8.40791035       9.08176231       0.15761882    -608.45146099      -0.28752840       0.23462032       0.14358245
I        3.62275243       3.32452726       9.54093552       0.13511808    -608.44586832       0.36320078      -0.05826840      -0.89263616
I        9.18410492       2.69847941       3.34965658       0.12703145    -608.46012159       0.18372508      -0.18978109       0.19166448
I        4.53305721       9.48632908       3.02315140       0.14998537    -608.52555704      -0.33883115       0.01578603       0.40559964
I        2.25540662       3.31072092       2.97023296       0.11408684    -608.23041092      -0.44396501       0.44265074       0.47007279
I        9.68364048       9.20723724       2.67099953       0.12844399    -608.52591847      -0.52190727      -0.55155958       0.29053401
I        3.50965905       9.51340675       9.48495197       0.12049988    -608.62445713      -0.00498670       0.03679382       0.04231080
I        9.37548923       3.27874923       9.76476288       0.15161400    -608.50965799      -0.00903956      -0.18745430       0.03855655
I       -0.61368537       2.17486763      13.01759338       0.09881942    -608.15180727      -0.70530561      -0.89278599       0.62757350
I        6.72148991       8.53260612      12.54408646       0.15137814    -608.40405350       0.04802516      -0.14625902      -0.41767937
I       10.29790592       5.99696922      -0.11167426       0.15237914    -608.43382659      -0.27608484       0.43016331       0.13801298
I        3.95323467      12.10127640       0.06262397       0.06811292    -608.19895463      -0.92452545      -1.75124260      -1.37464604
I       12.66245651       9.75607491       5.88645983       0.13593502    -608.61118078      -0.02220775       0.31602637       0.26458598
I        6.60219288       3.79273343       6.44368172       0.14571795    -608.23660217      -0.02810302      -1.21013365      -0.95652614
I        2.94158792       6.49533463       5.82023907       0.13922648    -608.56843504       0.23301879      -0.12076879       0.13869366
I        8.46391392      -0.43538314       6.13041306       0.13263597    -608.56630996       0.13687923       0.06535129      -0.30883517
I       12.97110176      10.19692802       0.24480791       0.12570626    -608.60609876       0.34973207       0.10863789       0.01915652
I        5.46861410       3.57227874       0.29058343       0.13914689    -608.48173676       0.19198308       0.23938598       0.17902319
I        1.89083958       5.78833771      12.64813900       0.14761107    -608.52895090       0.32550940       0.55810125      -0.30018815
I        8.31619644       0.38346872      12.79293728       0.12333144    -608.52492814      -0.35958876      -0.68168914      -0.10594824
I        0.10469528       1.97968376       6.42715645       0.12978379    -608.51994322       0.45733100      -0.24688211      -0.09239407
I        6.65272999       8.49341869       7.15682220       0.13217437    -608.56942554      -0.69759076       0.81484690      -0.24618382
I       10.52076340       5.59851360       5.90784979       0.14630735    -608.62127153      -0.26664350       0.16296877       0.16992774
I        4.18221903      12.69839382       6.15279007       0.12310735    -608.50839853       0.41866595      -0.23339097       0.32728373
N        6.24965858       6.68352509       4.27654791      -0.06057431    -609.95272971      -2.46278924      -0.92388865      -1.00870178
N       12.41811466      11.99236202       3.19246602      -0.14794908    -609.76096931       0.52759087       1.37645289      -0.44199759
N        0.76640475       6.86119461       8.68677235      -0.05605054    -609.68748839      -0.26232076       0.17937251      -1.86586730
N        5.42073536       0.06142803       9.66680527      -0.14077389    -609.78125134       1.50376527       2.13332362       0.84746433
N        7.31907654       5.84698296       8.80211258      -0.09310611    -609.46024184       0.35909034      -0.39557810      -1.06401658
N        0.68743664      -0.12305422       9.60184383      -0.08882374    -609.79349453      -0.58608306       0.96680388       0.95233488
N       12.02626514       6.31505060       2.94439530      -0.16060244    -609.78267227       1.44845108       0.19672917      -1.69809355
N        6.74661303      12.24221420       3.20505834      -0.13421227    -609.84522441       2.61954814       0.34986272      -0.71343313
C        6.10217524       6.04573774       8.41604614      -0.07464159    -609.79608349      -0.07744917       1.66056119       2.70376898
C       11.92907715      12.34612656       9.63896751      -0.10858481    -609.96855115       0.78536465      -2.39524374       4.10893479
C        0.66707778       7.45075321       3.09049225      -0.11519269    -610.01772591       0.97254982      -0.45190086      -1.21895782
C        5.60793447       1.25279522       3.11719418      -0.11808562    -610.06973686       0.01720432      -0.45332510      -0.73920792
C        7.27923107       6.10792017       3.50220656      -0.14543919    -609.49085385       0.78646809       0.90704774       1.11187532
C        1.21310890      -0.19255222       3.40631866      -0.11741512    -610.00580790      -0.93815209      -1.08688040       0.16583678
C       12.75833893       5.44483423       8.85393715      -0.11372007    -609.91992571       1.30993308       0.05619580       0.17300742
C        7.27934217      12.48515606       9.22568417      -0.11517743    -610.01108640      -1.35477283       1.00829337       1.08311417
H       13.64971447       5.11434937       9.40236378       0.07136871    -608.91288327      -0.38741558      -1.08058061       0.40573208
H        7.33066177      12.87554741       8.24475861       0.03450763    -609.19742542      -0.37413457       0.94403787      -1.02483733
H       11.83100891       5.23470640       9.42353535       0.05495813    -609.08224552       0.27011205       0.03909801      -0.41505316
H        7.76326704      13.13385201       9.95336723       0.03108255    -609.24896568       0.24911399      -0.01814069      -0.08660820
H        0.53439504       4.93604279       7.84427929       0.05126428    -609.08659330      -0.61803450       0.52733265       1.00148735
H        7.72883415      11.54730511       9.11018658       0.04682755    -609.17418342       0.61381007      -1.73294671       0.48061999
H        0.13903376       8.22707748       3.60026836       0.02885255    -609.20918549       0.08786322       0.48809480       0.63518102
H        5.07120037       1.31199121       4.06129026       0.03927359    -609.13753707      -0.06262435       0.57328575      -0.00596022
H        0.90063971       7.78189039       2.07520056       0.03669253    -609.19475078      -0.10782742       0.11869389      -0.05325349
H        4.90576029       1.31650662       2.24079680       0.04148970    -609.11938538       0.43603757      -0.49480345       0.94845955
H       13.95821285       7.13844109       3.51931095       0.03701835    -609.20481853      -1.15201771       0.17709775       0.12684993
H        6.30509329       2.06714344       2.89213538       0.03737354    -609.10824298       0.14838468      -0.15331765       0.56236945
H        4.68952751      13.10186768      13.55161953       0.20548835    -608.78578744       1.33121351       1.29957186       1.35639068
H        5.36121464       0.02280050      10.71306992       0.01497083    -609.35506100       0.04965985       0.35328474      -0.63434014
H        1.42213547       6.89235163       7.87577057       0.04496885    -609.31532012      -0.44237365       0.68651673       1.05650675
H        4.84625292       0.89130652       9.32893276       0.01381276    -609.40524348       0.28177850      -0.69614233       0.39428683
H        1.07785833       7.38747787       9.49850941       0.05645704    -609.27277599       0.09460855      -0.39380431      -0.04058864
H        5.04253769      -0.79979557       9.38725948       0.00176840    -609.45718918      -1.14158502      -1.80557109      -1.03863453
H       12.53666592       5.49486876       2.47438622       0.00523935    -609.31696958      -0.76076017       0.40905680       0.59031641
H        7.56005812      12.33667946       3.92343593       0.01773597    -609.41877494      -1.14910411      -0.16720887      -0.56088847
H       -1.07746542       6.54261971       2.32637787      -0.00221800    -609.42812892       0.16171619      -0.06262226       0.02114303
H        7.29267311      11.98003006       2.30303359       0.02212871    -609.40114497      -0.91671961       0.53534922       0.94958900
H       11.69430733       6.03016281       3.84523487      -0.00665067    -609.45792123      -0.67862658      -0.70848145       1.24552249
H        6.18851042      11.42168903       3.47536469       0.01063615    -609.46083801      -0.49617983      -0.09167799      -0.00665903
H       -1.77063358       1.34696591      14.23045635       0.18844169    -608.78488351       0.59462460       1.02186327      -0.71279795
H        7.70931816       6.63783503       9.41234207       0.07169294    -608.98560097       0.31019473      -1.85830741      -0.87450678
H        8.36956501       7.08368444      15.19483566       0.19902958    -608.33573987      -0.33154308       0.44115523       0.14217093
H        1.68619835      11.75630188      10.31467533       0.04851842    -609.28193768      -0.98331224      -0.22431815      -0.04724341
H        1.02899539      -0.27690083       8.69330502       0.03120221    -609.45145712       0.74891337      -0.18222731      -1.33560121
H        7.72705650       5.18795967       8.05778027       0.05580970    -609.10110466       1.02570989       0.96122275       1.29901321
H        5.58395910       6.57172680       9.18048573       0.08057513    -609.07687801      -1.28956487       0.83616901       0.09940332
H       11.16258717       0.20342425       8.66672611       0.05353579    -609.12619173      -0.58546146       0.35619639      -1.11316338
H       14.24544811       1.27771091      10.45366764       0.24527724    -608.03727917      -0.66183329       0.05654899       0.05391315
H       11.68181038      13.10042381      10.40580082       0.05844736    -609.04045931      -0.14309517       0.25732301      -0.72983537
H        5.62335348       5.54380894       7.62246704       0.06373473    -609.10871102      -0.49024498      -0.41144810      -0.56928058
H       11.36035538      11.38254929      10.17755604       0.07903311    -608.98412276       1.08177639       1.54923757      -1.46516317
H        7.41987896       6.72734070       2.41358590       0.01833397    -609.19952619      -0.03692495      -0.15401458       0.29300846
H        1.67089748      -1.11973369       3.04051304       0.02828022    -609.23441306       0.12600817       0.27994284       0.03120967
H        7.42264652       5.04767370       3.17149878       0.08442136    -608.70796983      -0.63542765       0.51582512      -0.20193650
H        1.79239917      12.25192738       4.46227217       0.02795183    -609.25281095      -0.06130682      -0.27908273       0.41892636
H        8.20077896       6.33582640       4.08532715       0.07728343    -608.68706883       0.19894111      -0.59561064      -0.06194806
H        1.53551877       0.70259386       2.94806886       0.03787109    -609.20477955       0.48421400       0.69086100      -1.00743291
H       11.99152851      12.89683342       3.51743388       0.00006367    -609.43846650      -0.03953153      -0.72847354      -0.49087891
H        6.13580751       6.33830214       5.26387358       0.05950533    -609.31751742       0.90707111       0.43794062      -1.00779930
H       12.06804562      11.25512123       3.79250002      -0.00059767    -609.40507917      -0.39121870      -0.77292224       0.53118670
H       12.37639332       3.94766283       2.73567057       0.24620393    -608.21524095       0.77606579      -0.61991127      -0.05858670
H        5.23789310       6.65764046       3.90548182       0.06272657    -609.20778972       1.98031069      -0.08217694       0.26222434
H       11.80947018      -0.52756774       2.17727327       0.00683889    -609.38535275       0.15611328       0.28681151       0.91750239
96
Lattice="12.299111366271973 0.0 0.0 0.397482693195343 12.292691230773926 0.0 0.0 0.0 12.580405235290527" Properties=species:S:1:pos:R:3:initial_charges:R:1:energies:R:1:forces:R:3 original_dataset_index=75 energy=-58460.54749140735 pbc="F F F"
Pb       9.78187943       9.25126648      12.33934212      -0.13734154    -607.15858458      -0.05695193       0.93710417       0.22127976
Pb       2.61442089       2.65344477      12.18261051      -0.12316211    -607.12596803       0.16731200       0.36502009       0.11963765
Pb       3.93599081       8.63365269      12.68912601      -0.13733512    -607.23034850      -1.31164118       0.70725689      -0.47777066
Pb       8.99825954       3.55792427      12.91590881      -0.13539919    -607.13862680       0.87828037      -0.86309088      -0.23339520
Pb       9.63430119       8.90108871       6.26359463      -0.14110766    -607.37704339      -0.27907136       0.40913286      -0.11160940
Pb       2.98198700       3.18987393       6.18135548      -0.14648125    -607.63047250      -0.01000255      -0.20901163      -0.27673625
Pb       9.38575268       2.66838074       6.24357271      -0.12058073    -607.02493133      -0.02803835       0.03050183       1.04962676
Pb       3.43385124       9.39738560       6.15125751      -0.13344285    -607.31370388      -0.41169557       0.24402933       0.51165024
I       10.37634754       8.56127834       9.28965569       0.13313241    -608.54083131      -0.28221143      -0.67157177       0.15480286
I        3.48032451       2.79064155       9.16708088       0.13347583    -608.51180948       0.20110125      -0.00165215       1.04855472
I        9.30294609       2.90914392       3.38443041       0.12058839    -608.49388715       0.06942163       0.14515625      -0.60512559
I        4.40487432       8.97456551       3.27849507       0.12896687    -608.61585490      -0.18470903       0.13437366      -0.28968648
I        2.53820062       3.76698899       2.98688388       0.14629030    -608.56585814       0.26499156      -0.17007580       0.11914676
I        9.76368523       9.59471893       3.18009377       0.14629856    -608.58070451      -0.55145073       0.17363906      -0.48555482
I        2.77028728       9.77630043       9.94830418       0.16458060    -608.34471773       0.79434088      -0.23887783      -0.82603691
I        9.46821117       2.98561645       9.85884094       0.14100909    -608.50851178      -0.35586478       0.08430902      -0.30706753
I       -0.29067215       2.27482748      12.62039185       0.12504749    -608.42841201      -0.03319934       0.28647751      -0.32641637
I        6.76911688       8.53413677      12.32826233       0.11994388    -608.39522442      -0.04482460      -0.22292069      -0.07908572
I        9.72533607       6.32600212      -0.29101291       0.11905457    -608.42619509       0.68644060      -0.46041021       0.23527303
I        4.07785702      12.12435818       0.20868346       0.13683848    -608.58032322      -0.16042575       0.21281399      -0.01381672
I       12.35332394      10.15295029       6.04170561       0.14729784    -608.41755442       0.24432696      -0.23124129      -0.09714812
I        6.16844463       4.18576527       6.32701969       0.15854721    -608.56646377       0.11529132      -0.23031131      -0.50876842
I        2.68294191       6.40883207       6.15733051       0.14220567    -608.52944523      -0.20816382       0.24957467      -0.15473995
I        7.75032663       0.22094037       6.53509665       0.13488226    -608.30335779       1.11377066      -0.06839282      -0.54819011
I       12.48105717      10.26909256      -0.43099248       0.13808686    -608.42927842       0.34392584       0.30217147       0.81219816
I        5.95919466       3.75683069       0.14279585       0.07970287    -608.29096794      -1.82293302      -3.42823865       0.20138093
I        2.38958621       6.06504059      12.79442215       0.13918258    -608.46922492       0.02116986      -0.19718768      -0.13848007
I        8.39735508       0.43572733      12.63475227       0.14619178    -608.53971253      -0.08351629      -0.40399987      -0.12124048
I        0.34892970       1.32407331       6.78406096       0.15042856    -608.45607451       0.04721508       0.88037742      -0.58852699
I        6.18069792       8.49397945       6.68281603       0.14296080    -608.49651616       0.68872443      -0.12501014       0.34123724
I       10.53477478       6.06013536       6.08868265       0.13335501    -608.62114339       0.11909353      -0.38131270      -0.10655439
I        4.92946625      12.76630592       6.35110569       0.14309542    -608.30460931      -1.38584476      -0.37666921      -0.21615914
N        5.75464439       5.76361322       2.90949631      -0.15033448    -609.64529656      -0.98447330       4.44891579       0.74428546
N       12.08691025      12.68322372       2.59124231      -0.14026755    -609.72117852       0.12979368      -1.07574261       1.23186883
N        1.51524055       5.97819519       9.49043751      -0.05139863    -609.74957699      -1.09887596      -5.21936115       5.26935962
N        5.62818432      -0.17136756       9.71552086      -0.13810109    -609.69111215       3.76118679      -0.88275582       3.82268838
N        8.12385559       5.72505665       8.47445393      -0.14229226    -609.74998885       1.22542582       1.25399634       0.88219529
N       -0.88368845       0.22914211       9.54001713      -0.13979343    -609.71783083      -0.13368535      -4.73146744      -1.64772165
N       12.43818951       6.68349743       3.31697226      -0.14624423    -609.70112604      -1.20378184      -1.09253766      -3.13288286
N        6.60375452      11.50437927       2.30639195      -0.14525740    -609.69415498       5.68063006      -1.11553570       0.89383370
C        6.94209003       5.75539923       9.42364788      -0.11521783    -610.05832603       2.38423348      -2.15311833       0.35551379
C       10.67808247      11.91569710       8.73963356      -0.13554247    -609.89613084      -2.16182699       1.15756391       1.96649207
C        0.51068860       8.02523994       2.84055853      -0.12259452    -610.02056095      -0.85654621       0.49950482       0.22444980
C        6.19956064       0.42826611       3.14070606      -0.11133882    -609.99684768      -3.71572828      -0.12521195      -0.06983274
C        7.03190613       6.39095306       3.38431168      -0.10912650    -610.01272120      -0.78591451      -1.07687031       2.84918041
C        0.82053882       0.49053994       3.10112166      -0.11962774    -609.98289329      -1.63048644       1.67554073      -2.18890207
C       12.69600201       4.84352970       9.58158112      -0.11101631    -609.84117081       1.60993205       1.16759765      -0.57375306
C        6.89920759      10.91501236       9.44159222      -0.12340348    -610.00751708       0.86840018       1.87353149      -0.33581905
H       11.73973846       5.22619295       9.14671612       0.06110791    -609.07292049       0.63321772      -0.19543714       0.71053864
H        6.30078077      10.08301735       9.22783184       0.03835519    -609.18624688      -1.12108122      -1.24795324      -0.03341672
H       12.90435505       3.82411575       9.14785290       0.08241405    -609.00850176       0.22005383       0.88028893      -0.64213444
H        7.48058987      11.13768578       8.53825855       0.03443971    -609.17963064       0.12675424      -0.09933286       0.40656944
H        0.39187694       4.53654623      10.63268661       0.06595638    -609.06440776      -0.70846861       0.68172123       0.30344420
H        7.50098991      10.80675125      10.32123089       0.02853201    -609.22741620       0.52002388      -0.36168054       0.36013984
H       -0.19031063       8.41176319       2.15811634       0.04347359    -609.11236580      -1.26643665       0.06238869      -1.01893703
H        6.08364868       0.07596489       4.15320301       0.04212182    -609.15839583       0.52652897      -0.03409463       0.52093724
H        1.35695767       7.86350775       2.25764465       0.02630359    -609.23485045       2.01324689       0.25250155      -0.54864719
H        5.13188601       0.89910358       3.01565099       0.06519847    -609.08795070       2.14106928      -0.03489964      -0.27017312
H       12.81615734       8.82227135       3.59308290       0.03872784    -609.18010162       0.57015706      -0.67018069       0.46620635
H        7.09610224       1.00777900       3.01200080       0.03986581    -609.18580207       0.06254275       0.51609972      -0.28826217
H        6.49407291       5.14135933      12.52861691       0.21139392    -608.69025408       1.16530660       3.48479227      -0.62022086
H        4.97584057      -0.53828841      10.39601040       0.00110214    -609.43264929      -1.26668862       0.49388716       0.36520741
H        2.41146135       5.51489735       9.85459805       0.05963322    -609.21407561      -1.43902246       1.25912143      -1.28931574
H        6.19114161       0.62675834      10.17212009       0.01962054    -609.35497784      -0.85147543      -1.35242463      -0.65167796
H        1.54095435       6.43031740       8.67035198       0.08137661    -609.16515384       0.52307428       1.65570752      -3.90695840
H        5.28572083       0.14321005       8.89031315       0.01048353    -609.43893308      -2.26652441       1.50334227      -3.49922763
H       12.18924332       6.66593838       4.25953102       0.01150992    -609.37351712      -0.04486285      -0.32730480       2.85455206
H        6.49199867      10.64030838       2.84059715       0.00857970    -609.42636814      -0.04592462      -0.12406838       0.48147957
H        0.87287533       6.02987432       3.02622890       0.00350304    -609.41828385       0.69881086      -0.38445955       0.76465239
H        7.66087198      11.42118740       1.85525608       0.02706078    -609.29986826      -2.36719147       0.20430426       0.87283347
H       11.60585785       6.18753576       2.86844659       0.02596563    -609.30153744       0.62388563       1.32039240       0.13141833
H        6.03754568      11.35638428       1.53137767       0.01613864    -609.40519653      -2.07156196       0.70609920      -2.14185733
H       -1.06522238       1.04661214       9.97721577       0.02902784    -609.33418179      -1.36838893       4.25452834       1.10586640
H        8.88030720       6.54233456       8.63739300       0.02091368    -609.35607227      -1.65606797      -1.46935038       0.03730587
H        8.65006256       4.78534174       8.65232086       0.00491140    -609.45513847      -0.64092474       1.11502116      -0.30450745
H       -0.35210073      11.93508244      10.42716694       0.01652050    -609.30860823       0.76019721      -0.31250622      -1.23390711
H       -0.11910975       0.37486425       8.82349873      -0.00004135    -609.38314046       0.26236285      -0.21561867       0.86687846
H        7.80721283       5.81647778       7.51748896      -0.00328234    -609.43470878      -0.16794540      -0.26802988      -0.77145848
H        6.30085754       6.57292032       9.34533215       0.04493927    -609.19147730      -1.01424575       1.40577539      -0.67360276
H        9.92571640       0.07369371       7.83619356       0.04667252    -609.12762744       1.16764926       1.10002203      -0.86101355
H        7.53382587       5.85647631      10.32400894       0.04155182    -609.21378622      -0.56654785      -0.06931704       1.01276105
H        9.67736912      12.07350826       9.27497387       0.05746997    -609.08646752       1.44853970      -0.66053976       0.22771177
H        6.44605064       4.75624180       9.37478065       0.04003312    -609.19841987       0.15993467       0.79157433       0.00563278
H       10.84318542      10.89110184       8.47970295       0.02746056    -609.22443690       0.49428287      -0.43332743       0.41210260
H        7.58503962       6.77240896       2.56817389       0.04443508    -609.16285341       0.39239881       0.90769548      -0.87213115
H        1.15668356       1.49127507       3.32725167       0.04192784    -609.22071177      -0.62130809       0.65775721       0.02903909
H        7.65795279       5.58897734       3.90359831       0.05094888    -609.15639044      -0.88369303       0.70132031      -0.69922231
H        1.79177392      12.47637367       2.29291344       0.03960028    -609.21593474       1.43706240      -0.85366455      -1.47863309
H        6.70046091       7.08989239       4.23231077       0.04418727    -609.17095530       0.77720261      -0.44694965      -1.44483710
H        0.96675825      -0.06959081       3.91491294       0.04402793    -609.17804247       0.34632751      -2.47879529       3.08387036
H       11.97527504      11.92439842       1.88372397       0.01097120    -609.41593402       0.46259572       0.33209234      -0.15793732
H        5.27922440       5.23351431       3.57806611       0.00313647    -609.42339076      -1.30011226      -0.49436545       3.04682085
H       11.92538738      13.58812714       2.09852362      -0.00440973    -609.39871381      -0.77642577      -0.32358511       0.31989413
H        5.80550337       5.04065323       2.32890344       0.02427144    -609.31631586       1.51348368      -3.86018615      -4.20087536
H        4.99162817       6.36977100       2.43726969       0.01553923    -609.33493711       1.24856998      -0.12278181       1.09412591
H       11.00692654       0.05481787       3.32611918       0.01801186    -609.35787395       0.51647442       1.06840834      -0.46467051
96
Lattice="12.299111366271973 0.0 0.0 0.397482693195343 12.292691230773926 0.0 0.0 0.0 12.580405235290527" Properties=species:S:1:pos:R:3:initial_charges:R:1:energies:R:1:forces:R:3 original_dataset_index=331 energy=-58451.49134393582 pbc="F F F"
Pb       9.79753685       9.34474468      12.35839272      -0.11954776    -606.39956073       0.45116729       0.84202209      -3.02932543
Pb       2.73000479       3.18624520      12.23759842      -0.14461347    -607.33566657      -0.36244640      -0.47350323       0.28841997
Pb       3.42987132       8.60844135      12.57344913      -0.12163247    -607.15453558       0.28751023       0.94504188       0.44596577
Pb       8.74445629       3.70612979      12.75322819      -0.11454064    -607.02210851      -0.34734979      -0.39177633      -0.05774104
Pb      10.03769493       8.75767708       6.25311995      -0.12528829    -607.06216512       0.18302387       0.38389024       0.06047574
Pb       2.92281556       3.26400256       6.37782907      -0.14003508    -607.43710371      -0.00559016       0.51229856      -0.21506906
Pb       9.34146118       2.75297594       6.64963055      -0.14827339    -607.54175127      -0.15867554      -0.28757214      -0.40675270
Pb       3.25754380       9.40948868       6.26429176      -0.14613010    -607.40547070       0.07267147      -1.08331567      -0.74336393
I        9.71269417       8.60523129       9.23228645       0.13648318    -608.58732923       0.12795759       0.08206988       0.25884721
I        3.70064282       3.39078712       9.43495655       0.13428389    -608.57868163       0.36818411       0.05567634      -0.45256600
I        9.54120255       2.64209437       3.36139870       0.14222594    -608.47115235      -0.47204727       0.12064260       0.16970574
I        4.42188549       9.41008663       3.18072534       0.16056682    -608.42263844      -0.68219739      -0.31806087      -0.11812595
I        3.03037405       2.83368731       2.93181705       0.15159583    -608.52605002      -0.57143688      -0.13755509       0.46752366
I        9.41372585       9.57703018       2.85186672       0.07087778    -607.89516342       0.83679345       1.51693040       4.80991134
I        3.66796875       9.03082275       9.36939049       0.13687007    -608.54566275      -0.02743970       0.07093461       0.48342619
I        9.09551430       3.35183096       9.63961315       0.13579115    -608.51659654      -0.23301514       0.25909799       0.53665083
I       -0.94362175       1.94798136      12.91400337       0.11012059    -608.25878217       1.64569053       0.38834191      -0.34322439
I        6.66521358       9.13685036      12.35059071       0.14924175    -608.38236864      -0.23431392      -0.26731818      -0.13036706
I       10.00912189       6.40263367       0.17055207       0.11175001    -608.48923103       0.54511945      -0.88205424      -0.15213759
I        4.57930899      12.55499744      -0.18305083       0.12565526    -608.48374330       1.11750798       0.00258332       0.70886068
I       12.78242683       9.96107101       6.93408203       0.12062339    -608.52928699      -0.54146778      -0.02606670      -0.01142883
I        5.98074532       3.01397133       5.96604156       0.13942257    -608.42680829       0.82838059      -0.12263344       0.28763668
I        3.42720699       6.31460333       5.75583410       0.14059074    -608.39940505      -0.44524030      -0.30219937       0.30981678
I        9.07497501      -0.36053494       6.15744400       0.14763992    -608.41777852       0.06610369      -0.05902641      -0.26033408
I       12.76599789      10.02896214       0.03864817       0.13182645    -608.64792486       0.49111389       0.15185286       0.03093914
I        5.44158268       4.02822113       0.48596540       0.13761714    -608.41528093       0.91976379       0.36277274       0.03217034
I        1.95916498       6.17512798      12.00805187       0.12123335    -608.51958310      -0.40517039      -0.40315883       0.15024865
I        8.39140129       0.14945939      12.20049572       0.08746482    -608.12734419      -1.66512520      -0.23536669      -0.15092465
I        0.08124197       2.26606703       6.70372009       0.13257845    -608.53008450      -0.29379175       0.07800000       0.12390428
I        6.53940678       9.43286133       6.74171019       0.11192949    -608.38873717       0.26344875       0.28186397       0.15461517
I        9.89260101       5.72889090       6.12448597       0.13001262    -608.54877273      -0.22022703       0.24659681      -0.28290545
I        4.06028843      12.24522686       6.42034578       0.10749410    -608.27221831       0.23442717       1.08965580       0.12827444
N        6.12647629       6.08976316       4.06030130      -0.08091313    -609.52395400       3.35129223      -1.42548620      -0.01959675
N       12.16290665      11.36915016       3.26294732      -0.16964354    -609.41828709       0.71499545       1.78965461       0.02307787
N        1.09505904       5.92680120       8.20795441      -0.06086482    -609.71899284      -1.13258595       0.83490378       0.52555191
N        5.38412142       0.01471331       9.36399937      -0.15199268    -609.78892019      -0.59531734       2.47952079      -0.76166819
N        6.83004522       6.90067244       9.51470852      -0.07216170    -609.55871346      -2.43638710       0.62719076       0.96934683
N        0.70214254       0.49599025       9.66495228      -0.06080804    -609.72267423      -2.22462853      -0.18733717       1.55980942
N       12.26809788       4.53450871       2.67145014      -0.14518254    -609.76775433       0.35817374      -1.56953188       0.34161134
N        6.99889612      11.43883801       2.48809838      -0.07056361    -609.72104882       0.55388600      -0.70909853      -0.58336252
C        6.04088831       6.20765638      10.31952286      -0.03732128    -609.77975002       2.41797759       1.19834629      -2.80209068
C       12.06495857      12.14951801       9.53136253      -0.12000872    -609.85235792      -0.86282838       1.26231713      -1.03991983
C        0.39726445       5.74356270       3.42425036      -0.11587542    -610.06821143      -1.74436551      -0.83573654       0.10566909
C        6.41515398       0.20671694       3.35988092      -0.11189734    -609.92953172      -1.36957743       2.25290210       1.17614109
C        6.20624971       4.81539726       3.67729592      -0.05317183    -609.87870291      -2.98861980       0.74555906       1.09067737
C        0.20240559       0.30460066       3.72934127      -0.11174695    -610.00153794      -0.36452576      -1.13551016       0.41827459
C       12.35255814       5.40247679       9.07351971      -0.11200085    -609.88804925      -1.66608307      -1.32551167       1.26993160
C        7.20385790      12.40411472       9.01107883      -0.11825023    -610.04933919       0.16165992      -0.79026155      -1.22990580
H       12.10713673       5.97449636      10.03041840       0.07811419    -609.00920713       0.70387698      -0.43219271      -0.71458967
H        7.20908308      12.38459969       7.90866804       0.02743697    -609.19940419       0.47570759       0.24592613       0.27805695
H       11.33081532       5.32532692       8.65281868       0.06099956    -609.14462824       0.58621877       0.14643607      -0.60430512
H        7.60814667      13.31682777       9.38943577       0.03419754    -609.16540440       0.37967648       0.71120997       0.12633302
H        0.30427033       4.34552526       9.31104565       0.06263679    -609.13607522      -0.09294613       0.37991287       0.33184777
H        7.78970766      11.52759552       9.34733486       0.03840543    -609.19147206      -0.39526993       0.32179525       0.07758103
H        1.23647773       5.43848658       3.99963140       0.02781576    -609.25389835       0.68829271       0.00808000       0.85015420
H        6.22548532       0.19344687       4.56892347       0.08740380    -608.93693606       0.24587528      -0.94864011      -2.49142920
H       -0.48977646       6.01661205       4.01631927       0.03261075    -609.22789169       0.56145576       0.22219983       0.15398016
H        5.59909773       0.84022099       2.87735939       0.07725673    -608.97020646       0.41190785      -0.23132659       1.06930224
H       12.95703125       6.52210045       2.76033282       0.03762329    -609.16956733       0.37567773       0.94407273      -0.86577393
H        7.30292463       0.79937005       3.28143191       0.05945217    -608.96792047       0.68248475       0.77256497       0.16749733
H        6.69220591      12.73178673      12.70296478       0.20002237    -608.55096570      -0.85397941      -0.46641110      -0.16702154
H        5.12945175       0.51243895      10.24805260       0.00356952    -609.39351692      -0.01166412      -0.41815857      -0.14423023
H        1.80897439       6.12538385       8.90596581       0.04949333    -609.31130736       0.76177121       0.34077188      -0.38877646
H        4.73545694       0.40905085       8.58455849       0.01238465    -609.41086541       0.90585918      -0.38479478       0.95873573
H        0.69894910       6.84770870       7.95603657       0.04812689    -609.30623669       0.75959769      -0.06189973      -0.37515101
H        5.13102579      -0.92900085       9.43398571      -0.00126239    -609.48727771      -0.89193403      -2.18457463       0.53392637
H       11.97904968       4.67953110       1.70581341       0.00449903    -609.41000768      -0.39883716       0.31276042      -0.09368986
H        5.84944820      11.11778069       7.02406883       0.17072028    -608.88054087      -0.10076825      -0.77759609      -0.68560135
H       -0.74608541       3.91749811       3.17273545       0.01031594    -609.37948038      -0.17999661       0.90630961      -0.44982546
H        6.32268810      10.76257896       2.28220844       0.04509161    -609.32652435      -1.56210115      -0.89304079       0.04156370
H       13.04242706       3.83338308       2.62613630       0.00285592    -609.42588474       0.55893955       0.34629316      -0.13333946
H        7.83803225      11.16136742       2.00683594       0.04488647    -609.22238210       0.22500693       0.81582882       0.42263095
H       -2.30312777       0.83833194      12.86523533       0.11040811    -608.93481230       0.14635011       0.11670584       0.16600660
H        6.58774900       7.86241341       9.13922882       0.07341581    -609.17758694      -0.26807732      -1.15836682       0.54810253
H        8.28010273       6.47748709      15.42910290       0.06228753    -608.98487649       0.18596960       0.04852758       0.02826236
H        1.35732615      12.25109673      10.48975372       0.04721084    -609.27605474       1.66225104       0.19669476      -0.21958077
H        1.18527651       0.31653440       8.81036377       0.05191360    -609.27568038       0.99216309      -0.50615889      -0.26540689
H        7.77406883       6.68149710       9.29825687       0.07127070    -609.17678455       1.31802068      -0.77481583      -0.01620940
H        5.04901266       6.52730703      10.39540768       0.06382959    -609.18436826      -1.51183382       0.59166155       0.53431630
H       11.65686607      -1.18122649       9.74870014       0.07137773    -609.01142988       0.29273509      -1.45087642       0.22284246
H       21.07365036      -3.51120353       1.58909619       0.18821716    -608.79665836      -0.98341822      -2.64738073      -1.88945689
H       11.73973942      12.21639919       8.47303295       0.04977435    -609.08204615      -0.27022118       0.30066445       0.54385692
H        6.36637354       5.25285292      10.65087795       0.06511597    -609.12822280       0.32497858      -0.73758927       0.44485385
H       11.29868984      12.55490780      10.23051453       0.05620774    -609.17664700       0.32611135       0.41460941      -0.46508369
H        7.95994043       6.20065594       2.23564076       0.05806978    -609.01440611      -0.01643386       0.00898974      -0.05208806
H        1.09950995      -0.06641382       4.20504093       0.03923706    -609.17134743       0.28259499       0.03225083       0.52815772
H        5.18897629       4.34570980       3.82706141       0.07603277    -609.00091218       0.98280554       0.11754790      -1.25522888
H        0.02497689      13.25871277       4.39077568       0.03790573    -609.19224109      -0.11468124      -0.68049531      -0.00947712
H        7.02102232       4.25546932       3.19402862       0.07994587    -609.19230361       0.08029148       0.56860008       0.68336055
H        0.53475600       0.92679518       2.94885159       0.04231953    -609.19672948       0.26927787       0.48847457      -1.47663642
H       11.77461433      11.35414982       2.34449720       0.00171762    -609.20912500      -0.08155890       0.74444589      -1.46377257
H        7.02024651       6.48037386       4.45901823       0.06829798    -608.99362707      -1.10796824       0.14330737      -0.92843935
H       11.38528252      11.16333580       3.82629347      -0.00070632    -609.29229682      -1.46401359       0.29457169       1.68944433
H       13.07715416       9.21843147       3.69499683       0.23754059    -608.08750219       0.10979613      -0.12646988      -0.10332110
H        5.23610163       6.46180487       4.41046667       0.05059905    -609.24873314      -0.19820138      -0.03104192       0.20692342
H       12.28291225      -1.88639939       3.32978940       0.00168534    -609.60621310       1.26181685      -1.24196877       0.51402573
96
Lattice="12.299111366271973 0.0 0.0 0.397482693195343 12.292691230773926 0.0 0.0 0.0 12.580405235290527" Properties=species:S:1:pos:R:3:initial_charges:R:1:energies:R:1:forces:R:3 original_dataset_index=207 energy=-58451.70992703023 pbc="F F F"
Pb      10.11609650       9.90626240      12.22115707      -0.12108167    -607.13031479      -0.73013280      -0.60871849      -0.32925763
Pb       2.46762729       2.72621536      12.25542355      -0.13076390    -607.16844687       0.46449525       0.93047669      -0.48046648
Pb       3.70595169       8.83227634      12.50213814      -0.13425590    -607.35075555       0.10081169      -0.69822452       0.44124122
Pb       8.51862526       3.53304291      12.96768475      -0.13323984    -607.32521726       0.18161186       0.27778632      -0.24704506
Pb       9.48476696       8.73424435       6.10235262      -0.14207260    -607.52924301       0.60227380       0.16198535       0.38290561
Pb       2.84334922       3.34221840       6.04415131      -0.12906633    -607.20665110       0.11691584       0.21446485       0.62942750
Pb       9.46464729       2.62978578       6.76126289      -0.14845777    -607.56888728      -0.51995383       0.12812888      -0.14391639
Pb       3.39221597       9.73902512       6.32048845      -0.12223331    -607.20995366       0.09978400      -0.49572295      -0.32281868
I       10.22273636       8.42119408       9.08433056       0.15679961    -608.47163689      -0.27311548       0.30973707       0.17929653
I        3.62823343       3.33472729       9.51304817       0.14185306    -608.61300793       0.12402721      -0.29767748      -0.38240256
I        9.20937824       2.68049574       3.39648700       0.14121512    -608.44579148       0.06920325      -0.02253343      -0.00786870
I        4.51696539       9.50882626       3.01925492       0.14343213    -608.48501876      -0.30115368      -0.10821076       0.61148808
I        2.27063131       3.29873919       2.99086905       0.10596805    -608.21984333      -0.63487940       0.36627049      -0.01136851
I        9.67941856       9.21354866       2.67850184       0.14010417    -608.51921293      -0.05458203       0.08328468       0.15313820
I        3.52225351       9.49544239       9.53654385       0.11446305    -608.42344243      -0.05021082      -0.29510734      -0.33744027
I        9.36338043       3.29024768       9.79610252       0.14624883    -608.51875817      -0.00763551      -0.16303162       0.06965170
I       -0.60249084       2.16871810      13.01913071       0.08145983    -608.17139568       1.14264070       0.61439554      -0.89033713
I        6.72731972       8.54647446      12.55127716       0.15136383    -608.44181668       0.15556943      -0.31031953      -0.12779204
I       10.30156994       6.00204325      -0.10249084       0.15430537    -608.45697841      -0.30188627       0.42854996       0.27206665
I        3.97480416      12.11586285       0.04770835       0.09211419    -608.34027754       0.73874581       0.07863552       0.67168857
I       12.64386082       9.75851727       5.89580154       0.13504516    -608.61121574       0.10512753       0.24694182       0.37372605
I        6.60972643       3.75470829       6.42676544       0.15339948    -608.23945011      -0.51189258      -1.19106997      -1.15572491
I        2.96021128       6.46712923       5.82414818       0.13895336    -608.54459183       0.20893610       0.00986299       0.03322803
I        8.49725819      -0.44782302       6.12553406       0.13751644    -608.55679129       0.07296286       0.13526442      -0.31666388
I       12.97825623      10.19080544       0.25075009       0.12631018    -608.61380412       0.16682648       0.12177404      -0.02194159
I        5.49325228       3.58368349       0.31277168       0.14339109    -608.43432137      -0.05925800       0.31418463       0.13866674
I        1.83547390       5.81738806      12.62914371       0.15228978    -608.46100303       0.35389057       0.10258240      -0.19071873
I        8.28847694       0.37399217      12.80231094       0.12376904    -608.50700246      -0.32124907      -0.58864358      -0.16295311
I        0.09667558       1.99151516       6.41677284       0.13246591    -608.51916804       0.54426358      -0.22462147      -0.09092328
I        6.63091946       8.52237225       7.14201927       0.12506461    -608.50310791      -0.77185568       0.23872770       0.22244803
I       10.50729752       5.59533739       5.89184475       0.13686471    -608.60954706      -0.47747107       0.20131311       0.49769510
I        4.19986534      12.71208763       6.15079260       0.12445384    -608.51578357       0.28319567      -0.36130250       0.42444766
N        6.29379988       6.66293716       4.28745365      -0.07202841    -609.78942351      -1.82226724      -0.67721416       1.14055986
N       12.41662693      11.96641159       3.24940848      -0.15031815    -609.67773903      -0.83313881       2.57314175      -1.93435594
N        0.78903490       6.87583065       8.67912960      -0.05571844    -609.80301935       0.26691389       0.49230998       1.06012964
N        5.42423296       0.00798029       9.63492489      -0.14905818    -609.69515562      -0.01674817       3.15032288       2.13582287
N        7.32273483       5.66917753       8.61582947      -0.08765203    -609.66484222       0.60989874       1.46614401       1.92951781
N        0.71641386      -0.10948187       9.61783123      -0.10512078    -609.62290141      -0.83706649       0.26440235       3.48056953
N       12.04946804       6.21953869       3.07223439      -0.15114309    -609.76943675       0.60070432       0.63712615      -3.91144891
N        6.69982815      12.22629261       3.14596272      -0.15170100    -609.83765601       1.57626374       0.77975069      -0.17440696
C        6.08240032       6.18238783       8.39512634      -0.05578827    -609.67560037       2.75296144      -1.20843434       0.73017826
C       11.94574261      12.38398361       9.67911625      -0.11774254    -609.85224254       0.45374783      -1.18612673       0.79619589
C        0.65826386       7.40591002       3.07769585      -0.11507613    -609.98043822       0.99511865      -1.51445858       0.10124997
C        5.56516075       1.23454392       3.13763881      -0.13647464    -609.85144477       0.48913110       0.35503543       0.08239082
C        7.30164671       6.10455608       3.60526252      -0.19260311    -609.20513899      -0.40926421      -2.15395218      -1.61197885
C        1.18902314      -0.19974945       3.40241718      -0.11948786    -610.03262683      -0.81926844      -1.72215329       0.29306737
C       12.81357193       5.46217394       8.93346405      -0.10797032    -609.89054255       0.16420919      -1.28069246      -0.78146385
C        7.20826340      12.48930550       9.12873268      -0.11323423    -610.04345078      -0.94415602       0.73288550       1.19058874
H       13.49634743       4.77755976       9.58537483       0.07630820    -609.00484601      -0.61807051       1.46566980      -0.72018903
H        7.12670040      13.04402828       8.23088646       0.03011530    -609.19076683       0.25820649       0.15099265      -1.26634046
H       11.78357601       5.29170895       9.29336166       0.07010636    -609.06756372       0.13188105       0.51510158       0.39121144
H        7.77565193      13.07526875       9.84513950       0.03689259    -609.21252427      -0.00247896       0.28185434       0.21746288
H        0.42654672       4.89972687       7.94994211       0.06366995    -609.06444226       0.49817171       0.69893475       0.62895526
H        7.63067293      11.52456093       9.11038208       0.04037131    -609.15120851       0.78318545      -1.18759515      -0.71230186
H        0.26959741       8.18310165       3.67554402       0.03603417    -609.20194573      -0.75653088       0.75064004       0.76890215
H        5.05024481       1.39273036       4.07216215       0.03369306    -609.17883859      -0.06331440      -0.19306626       0.53006918
H        0.67635036       7.70446491       2.04812217       0.03117109    -609.21465536       0.42555104       0.35409211      -0.56239542
H        4.75024796       1.17580032       2.37238193       0.02391992    -609.04270384       0.51816417       0.41639985       0.13650687
H       13.95413589       7.14158630       3.48608732       0.03576761    -609.18801947      -0.46671423      -0.00574699      -0.43804965
H        6.26123810       2.07856512       2.98968887       0.02912479    -609.16465986      -0.23387140      -0.39513483      -0.36420482
H        4.90903425      12.38992882      14.33212471       0.20634419    -608.47930541      -1.18217676      -0.62137719      -1.75521054
H        5.44313002      -0.07029226      10.68335247       0.00563010    -609.41492353      -0.23287923      -0.13685298      -0.72572922
H        1.47794044       7.17892313       7.98251200       0.05358871    -609.30537994      -0.21073923      -0.83636497       0.26346136
H        4.73310041       0.82147384       9.45987797       0.01045610    -609.45351499       1.07300194      -0.51219244       0.08014937
H        0.88730747       7.51327610       9.50002480       0.05756032    -609.27230624      -0.25496349      -1.06347780      -0.62940677
H        4.93095541      -0.76363868       9.29210472       0.00516154    -609.45456807      -0.97272755      -2.17218133      -0.94329846
H       12.42496967       5.41272306       2.48056316       0.01030432    -609.38435999      -0.04530433       0.50175440       0.98093843
H        7.53619814      12.32271481       3.85771990       0.02223848    -609.27148864      -1.19308812      -0.55276050      -1.12506902
H       -1.04070246       6.52378511       2.46501637       0.00180861    -609.43371268      -0.15885338      -0.16213142       0.13130741
H        7.06694221      12.02315807       2.13123775       0.01862676    -609.38702835      -0.13117202       0.23020806       1.77616389
H       11.62164593       5.89285803       3.89959979      -0.00503522    -609.45504437      -0.40337867      -0.65264847       2.16115865
H        6.05371809      11.45477009       3.41033006       0.00334221    -609.48182567       0.20560212      -0.23450904       0.04305629
H       -1.74228537       1.34309542      13.74845791       0.17426716    -608.85616791      -1.18577885      -0.79519378       0.70708166
H        7.89861679       5.67577696       9.52189350       0.08194806    -609.04422682      -1.46199449       0.63533125      -1.20642024
H        7.94017553       6.92952919      15.67487431      -0.00185498    -608.82421556       1.22206260       1.87544804      -1.50561914
H        1.26322114      11.48538113      10.37809944       0.03211432    -609.28318954       0.70517429       0.54300318      -1.04964040
H        1.09600115      -0.40372807       8.76804733       0.04031553    -609.24157369      -0.09946640      -1.09138436      -1.99542129
H        8.01268387       5.59288025       7.84594917       0.06292661    -609.10640203      -0.99700784      -0.50855732       0.16132183
H        5.45492744       6.54449654       9.17997932       0.08921958    -609.03295990      -0.01046938       0.25001334       0.84791064
H       11.21348953       0.24742199       8.70493698       0.05706407    -609.06963105      -0.89958134       0.19806108      -1.87333492
H       14.80471039      -0.23688389       9.26355553       0.26887077    -607.97057610       0.85027350       0.47743280       0.51709758
H       11.59982395      13.27834606      10.23613930       0.05761837    -609.02490261       0.30845087      -0.68797745       0.31383394
H        5.60852289       5.61196709       7.62529659       0.07551301    -608.95085227      -0.64427303       0.61593185      -1.23920729
H       11.58963490      11.33468723       9.99994469       0.06009114    -609.03052132      -0.53134805       1.60938138      -0.04216959
H        7.40949059       6.85536909       2.34781814       0.10840721    -608.71419145       0.69126772       0.24746791       0.19449162
H        1.75550473      -1.03491402       3.00169015       0.03204824    -609.21191941      -0.31202533      -0.52674750      -0.04096417
H        7.09736252       5.31293297       2.86571527       0.06785817    -608.64913898       0.02142661      -0.38965408       0.41364276
H        1.71791434      12.14886665       4.46341419       0.02117696    -609.25489564       0.52419975       0.33741737       0.66387516
H        8.23004246       5.87385798       4.19361448       0.06909988    -608.58337433       0.00012233      -0.19274369      -0.44584475
H        1.48345435       0.64722067       2.87814355       0.03416514    -609.20177942       0.52297214       1.73305141      -0.66615128
H       11.98037243      12.89065838       3.51823878      -0.00028928    -609.42708141       0.28863410      -0.64926288       0.08915826
H        6.67759085       6.65254974       5.24038410       0.03133333    -609.36896784      -1.67118289       0.41056528       0.26145969
H       11.96907330      11.28391552       3.81894779       0.00343879    -609.39502350      -0.35554378      -1.39663251       1.06361520
H       12.44385529       3.55718279       2.70082593       0.23581395    -608.31164460       0.87218154      -0.12362721       0.09082190
H        5.31543350       6.25627327       4.11304569       0.05242352    -609.31452505       1.75208672       0.83758899       0.85388869
H       11.67444420      -0.45270157       2.26065302       0.00340689    -609.39105921       0.69927433      -0.35579105       0.61133386
96
Lattice="12.299111366271973 0.0 0.0 0.397482693195343 12.292691230773926 0.0 0.0 0.0 12.580405235290527" Properties=species:S:1:pos:R:3:initial_charges:R:1:energies:R:1:forces:R:3 original_dataset_index=210 energy=-58452.76455813054 pbc="F F F"
Pb      10.11666393       9.89485931      12.20819378      -0.12031300    -607.13036613      -0.66353990      -0.61800965      -0.27470828
Pb       2.45401573       2.72743869      12.25704861      -0.13576917    -607.26352599       0.31351780       1.34754327      -0.23132807
Pb       3.69926119       8.83690739      12.50667572      -0.12640411    -607.18527907      -0.04232464      -0.92288951       0.22703764
Pb       8.52554893       3.54093480      12.95411015      -0.12964234    -607.36108814       0.21583151       0.40652279      -0.40638408
Pb       9.49587631       8.72919273       6.11002922      -0.13955222    -607.49367813       0.60171650       0.17654192       0.22238367
Pb       2.84784079       3.36065960       6.04795218      -0.13321652    -607.31994531      -0.05026405      -0.00997501       0.23762182
Pb       9.45439911       2.64024162       6.75710011      -0.14732884    -607.52141264      -0.29371457       0.04261108       0.06077215
Pb       3.39738703       9.71849442       6.29827070      -0.11192591    -607.03290734       0.00130579      -0.20333592      -0.31561640
I       10.21080017       8.43011570       9.08635044       0.15227845    -608.49225106      -0.25019423       0.25592379       0.18579701
I        3.63206172       3.34000301       9.49489403       0.14696692    -608.59004295       0.13335661      -0.26535056      -0.31744970
I        9.22473431       2.66972733       3.42433095       0.11605047    -608.22806157       0.85959566       0.27291150      -0.32475229
I        4.50651360       9.52210617       3.01886606       0.13178177    -608.56388528      -0.16212504       0.18465448       0.61899623
I        2.29047012       3.29021382       3.00438333       0.14137402    -608.54664028       0.14381363       0.13410564       0.09879958
I        9.67666817       9.21739483       2.68363571       0.14126737    -608.49036741       0.08192509       0.25225978       0.26247638
I        3.52946734       9.48471260       9.56613636       0.07511918    -607.98096124      -0.13691131      -0.19073444      -0.03214977
I        9.35623264       3.29647470       9.81471062       0.14360031    -608.56863215      -0.01141141      -0.21145904       0.08243014
I       -0.59356558       2.16584039      13.01834297       0.08939730    -608.10220451      -0.33526081      -0.33650260       0.35424917
I        6.73111439       8.55377483      12.55493927       0.15351197    -608.39776505       0.03355273      -0.11033220      -0.32111822
I       10.30270004       6.00637770      -0.09614037       0.15451384    -608.43480395      -0.33548620       0.38030460       0.26072359
I        3.98943377      12.12503624       0.04036736       0.07933785    -608.26906605       0.56468030      -0.42542401       0.72464435
I       12.63309956       9.76078796       5.90237856       0.13053708    -608.63013514       0.15399944       0.19848063       0.28835076
I        6.61259556       3.72813678       6.41293907       0.15295513    -608.26499361      -0.71981710      -1.09366616      -1.01062394
I        2.97196007       6.45042276       5.82654285       0.13253522    -608.63329384       0.23955241       0.25176181       0.04856378
I        8.51737309      -0.45501024       6.12166595       0.13913703    -608.56265403       0.11087086       0.10149422      -0.34228962
I       12.98324013      10.18752384       0.25417575       0.12816274    -608.61849408       0.12540611       0.07289734       0.04299430
I        5.50763750       3.59143281       0.32657778       0.14492726    -608.43482428      -0.00806909       0.29043596       0.05900717
I        1.80390549       5.83508492      12.61711788       0.15557681    -608.47344577       0.51132529       0.07324024      -0.28841433
I        8.27105427       0.36632651      12.80732155       0.11630176    -608.42508088      -0.13618863      -0.53920287      -0.13280953
I        0.09378333       1.99784195       6.41033983       0.13779055    -608.50420156       0.52048850      -0.18457197      -0.06665907
I        6.61538410       8.54069519       7.13379049       0.11474274    -608.37076232      -0.44729851       0.74289755       0.42467568
I       10.49794483       5.59404707       5.88382387       0.13060342    -608.53452813      -0.38183057       0.11029495       0.71739047
I        4.21128225      12.71898651       6.15079927       0.12168126    -608.48914075       0.20658404      -0.51371571       0.42100686
N        6.31876755       6.63718843       4.31547976      -0.06262958    -609.88239591       0.03978133      -0.18183086       2.81736042
N       12.39324474      11.97960186       3.27081347      -0.14469035    -609.77062038      -0.19713573      -1.04645767       1.67999612
N        0.79644263       6.88462734       8.68487930      -0.06099527    -609.67949124       0.68777169      -2.07807765      -1.31318782
N        5.41858196      -0.01490386       9.63651180      -0.14945251    -609.88828595      -1.20143566      -0.35740954      -0.85772234
N        7.31035185       5.59796381       8.52536297      -0.09157436    -609.58601457      -1.59755065       1.50384957       1.24233138
N        0.72872692      -0.09916349       9.65735054      -0.08001356    -609.76983260       0.28843635      -2.34976739      -1.35815957
N       12.05171680       6.17330885       3.10925174      -0.14004059    -609.77186413      -0.61591388       0.90679226       0.79988593
N        6.67684078      12.24145985       3.10879064      -0.14902775    -609.82018944      -1.19765443      -0.70171325       1.87215926
C        6.13240242       6.23313475       8.42653751      -0.05475837    -609.70753608      -1.10016287      -0.62056199      -1.61048624
C       11.97310162      12.39948463       9.68093204      -0.11529983    -609.91157156      -1.48421280       0.08267098      -2.60904127
C        0.65595770       7.36784792       3.05824566      -0.11338714    -610.01162228      -0.96360696       0.78767354       0.71536779
C        5.54842997       1.22368872       3.16856265      -0.12190489    -610.04372869       0.92254662       0.89281483       0.41343920
C        7.31742620       6.05383968       3.62739778      -0.10286786    -609.46674926      -2.05726117      -1.08452963      -0.14971121
C        1.16151178      -0.21959336       3.40237617      -0.11590596    -610.03507548       1.15738301       1.30485163      -0.06853409
C       12.85232544       5.46378136       8.96581745      -0.11632177    -609.89585030      -2.40362113       1.52783825      -0.48571529
C        7.15078974      12.49992466       9.08529282      -0.10763528    -610.06004061       1.44640618      -0.70224792      -1.19304354
H       13.31908035       4.82250309       9.69148445       0.06726602    -609.00368930       1.33877205       0.08895555       0.40382292
H        7.07157564      13.05615044       8.10512733       0.03844316    -609.19293457       0.06316690      -0.68712239       0.95000579
H       11.80837536       5.49408293       9.33325100       0.06803691    -609.01230249      -0.08212380      -0.34508261      -0.01988493
H        7.76952600      13.07921505       9.78206825       0.04123623    -609.20991815      -0.22584581       0.06159957      -0.03212657
H        0.46124110       5.02926207       8.00470161       0.04693031    -609.09188551       0.14811728      -1.15907341      -0.97809231
H        7.65577173      11.47796726       8.94941998       0.04959630    -609.16080989      -0.65945956       1.37037871      -0.02142624
H        0.27387983       8.13917446       3.78125882       0.04004100    -609.22257314       0.07726425      -0.67855593      -0.78372174
H        5.09366083       1.40126073       4.14471626       0.03094523    -609.18987799       0.29049159      -0.28648757       0.05855238
H        0.66903818       7.77402830       2.02713060       0.03401240    -609.21083438       0.04731124      -0.31895500       0.56973858
H        4.76245642       1.17997360       2.44662356       0.02693711    -609.18848459      -0.50773320       0.20146983      -0.64666291
H       13.91383934       7.09681034       3.44037914       0.03618324    -609.22703569       0.80522069      -0.31413116      -0.10109878
H        6.26971102       2.03445888       2.96165991       0.03001297    -609.18495667      -0.41331021      -0.21373501      -0.06141386
H        4.68780565      11.69257545      14.24307632       0.19597609    -608.67752853      -0.62239437      -0.21672372      -0.79224369
H        5.45877552      -0.14187151      10.64623737       0.00937111    -609.35364297      -0.08221145      -0.58840121       0.33373105
H        1.54361510       7.09218121       8.00816059       0.05184044    -609.20574854      -0.18472808      -0.00720913       0.99220275
H        4.80067968       0.80666900       9.50596237       0.00295925    -609.45006830       0.01784046       0.40791735      -0.08459339
H        0.70642102       7.34814739       9.53007698       0.04772673    -609.28995155       0.47305155       1.90302151       1.55868321
H        4.87061977      -0.80398387       9.13543892       0.01322649    -609.27001650       0.72579042       0.96012816       0.93380722
H       12.45886612       5.40154743       2.61971545      -0.00606542    -609.52281880       0.47449863      -1.03518653      -0.70296369
H        7.42569351      12.15370274       3.79891562       0.00554630    -609.37891025       0.78483815       0.35677699       0.14853843
H       -1.07956326       6.46954107       2.58246589      -0.00390751    -609.47303163      -0.35568395      -0.41861072      -0.05607813
H        6.98118687      12.05567646       2.17680883      -0.00070116    -609.42826199       1.00592781      -0.21579155      -1.15184870
H       11.70177746       5.80121803       4.09647751      -0.00084389    -609.41439845       0.75398144       1.00455206      -1.30705406
H        6.05995274      11.43958378       3.38143706       0.00048424    -609.45815867      -0.16869717       0.09551320      -0.20702163
H       -1.98388231       1.18914843      13.62441444       0.17175972    -608.86241343       0.36003774       0.40933436      -0.28978325
H        7.76901102       5.24471903       9.34039307       0.08145034    -609.06583896      -0.16833260       0.21061279       1.63681083
H        8.00989056       7.37688828      15.52734566       0.04625225    -608.81325735       0.68867539       0.02331438      -0.11431345
H        1.19043064      11.29999638      10.17612267       0.05650681    -609.15391411       0.47284066       0.69793243       0.96843205
H        0.93688881      -0.67075557       8.76115608       0.06115756    -609.12361957      -0.44851855       1.82213646       0.67291144
H        8.05494595       5.67955875       7.87299919       0.07197957    -609.06377900       0.08499842      -0.06124005      -1.61991284
H        5.39563322       6.55003595       9.21525574       0.10027096    -608.99180660       1.33773406      -0.58623181       0.15430403
H       11.08676910       0.25606716       8.63589478       0.07964808    -609.03256070       1.11681788      -0.05665267       1.02651327
H       15.32098770      -0.94155914       8.78070927       0.20025457    -608.56460024       0.21878047      -0.27042194      -0.36590582
H       11.61511993      13.28993225      10.20028782       0.05599764    -609.15620772       0.27247782      -0.20840808       0.61498404
H        5.50248909       6.05232191       7.46417379       0.07747498    -608.83929764       1.37739212       0.34924196       1.25354632
H       11.47775745      11.45538330       9.93102551       0.06723765    -608.98558704      -0.47151551       0.06011372       0.73331451
H        7.56038857       7.03211641       2.36882138       0.04552500    -608.79427301       0.09102860      -0.27632883      -0.38612394
H        1.70291603      -1.06970274       2.97308373       0.03313069    -609.24013928      -0.51374520      -0.23141420       0.06694995
H        6.86141109       5.40172768       2.85908079       0.08344557    -608.74517479       0.47906362       0.08536847      -0.20914182
H        1.81398702      12.16226482       4.48139906       0.02536437    -609.26875718      -0.14923682       0.12618413      -0.71707899
H        8.18500328       5.53765965       4.09650612       0.08813168    -608.74089392       0.38132212       1.24260929      -0.28293857
H        1.51404643       0.70623332       2.83266258       0.04367910    -609.19099789      -0.45911185      -0.98526885       0.87362558
H       11.93762016      12.83839512       3.61444831      -0.00144389    -609.45181622      -0.09081645       0.10538049      -0.32607794
H        6.51216841       7.05544567       5.30844498       0.06458479    -609.22032167      -0.19519627      -0.75388599      -2.00797886
H       12.02203083      11.18413830       3.90763450       0.01040494    -609.37502979       0.53707572       0.75375325      -0.58102478
H       11.17986870       3.52084136       2.54078603       0.26064217    -608.23316680      -0.90508018      -0.66835581       0.10958976
H        5.43606329       6.09752560       4.37375736       0.05824573    -609.21551393       0.20259327       0.68158410      -0.51057155
H       11.76437950      -0.56396693       2.32159019      -0.00329278    -609.45487117      -0.49022461       0.01178831      -0.87153798
96
Lattice="12.299111366271973 0.0 0.0 0.397482693195343 12.292691230773926 0.0 0.0 0.0 12.580405235290527" Properties=species:S:1:pos:R:3:initial_charges:R:1:energies:R:1:forces:R:3 original_dataset_index=338 energy=-58452.44656424302 pbc="F F F"
Pb       9.79102707       9.35044670      12.36612034      -0.14502634    -607.40552339      -0.23989223      -0.24502726       0.34279203
Pb       2.73447084       3.18837214      12.24393463      -0.14422338    -607.30608184      -0.19783785      -0.33999876       0.22474201
Pb       3.43141389       8.61941242      12.56398869      -0.11676150    -607.13080265       0.24004690       0.86401633       0.22961525
Pb       8.74740410       3.69614601      12.75882912      -0.11263444    -606.89795576      -0.62224934      -0.07110050      -0.03271847
Pb      10.05271912       8.77644920       6.24592924      -0.13790102    -607.18031678       0.29935781       0.58073985      -1.43211592
Pb       2.92227530       3.26205540       6.37797070      -0.14150175    -607.46190165      -0.15568050       0.53827053      -0.11799105
Pb       9.34069538       2.74224734       6.63492584      -0.14880601    -607.54068951      -0.24592347      -0.21549583      -0.42057237
Pb       3.25569081       9.40070724       6.27462339      -0.14055628    -607.24567174      -0.31817726      -1.04950314      -0.17597142
I        9.70715141       8.60384083       9.22957039       0.13827240    -608.58750838       0.05460121       0.02759411       0.80034845
I        3.71502614       3.39650369       9.44006920       0.13476364    -608.60446497       0.35136697      -0.09595268      -0.42398156
I        9.51155090       2.66061902       3.34233451       0.14356837    -608.53574263      -0.20431416       0.16117558       0.06343862
I        4.42743206       9.38117886       3.16960263       0.14185967    -608.44440111      -0.40431162       0.25451117      -0.46109433
I        3.02175164       2.81374598       2.93709254       0.14914116    -608.50699067      -0.31919562      -0.11395817       0.50287933
I        9.42403126       9.58741283       2.91176939       0.13851473    -608.36037302       0.07667507      -0.73061815      -0.59111446
I        3.66967344       9.02741051       9.36621857       0.13295414    -608.57078666       0.04868653       0.06805875       0.44650709
I        9.08206272       3.36598969       9.65219116       0.13831010    -608.53396516      -0.24044543       0.19713060       0.52597741
I       -0.91833556       1.96411276      12.89027309       0.09169739    -608.31585471       2.73906082       0.77635808      -0.52383517
I        6.65037727       9.14091587      12.33126068       0.15698892    -608.31039856      -0.32914185      -0.37248332      -0.18985925
I       10.01604366       6.32000494       0.13866881       0.11864616    -608.51248898       0.61873447      -0.12004355      -0.20847349
I        4.58485889      12.56107140      -0.18172763       0.11341784    -608.54415549       0.09003097      -0.48091117       1.10432826
I       12.76071644       9.96316719       7.00678921       0.11489034    -608.38576645       0.63628365       0.26288586       0.74131011
I        5.99584532       3.01627445       5.97985601       0.14054239    -608.37387695       0.71982284      -0.04395301       0.27282893
I        3.42859197       6.28657246       5.75197172       0.13506036    -608.47308275      -0.32984776      -0.08075675       0.28533982
I        9.08443737      -0.35426289       6.16910791       0.14142770    -608.38670430       0.12354094       0.21760527      -0.15639841
I       12.77031803      10.02860069       0.02833864       0.13815522    -608.54885433       0.61673084       0.09857267      -0.07840858
I        5.47095823       4.04731655       0.47873506       0.14067413    -608.43550391       0.80216874       0.32701234      -0.03471264
I        1.96831977       6.15855312      12.00539780       0.12543862    -608.49007545      -0.39457057      -0.27463393       0.14744905
I        8.38228798       0.15531813      12.18108845       0.06948049    -608.00886551      -0.66065602       0.04412378      -0.52263321
I        0.05453702       2.28464055       6.73472643       0.13346557    -608.54841687      -0.03492325       0.04088276       0.04190917
I        6.56339788       9.43439198       6.72522449       0.12294156    -608.45694714      -0.10627865       0.20048323      -0.47817194
I        9.86886597       5.73849964       6.12252474       0.12988266    -608.57729765      -0.16621810      -0.02114538      -0.27246863
I        4.05202436      12.24937057       6.42532206       0.09803353    -608.28967934      -0.11783926       0.84839004      -0.37921217
N        6.19014883       6.07946920       4.06514740      -0.08768877    -609.60994528      -1.68825138       0.39514226       1.18773674
N       12.23853683      11.42054081       3.18456554      -0.17520931    -609.54993076      -1.78423500       0.09620019       2.22733232
N        1.03967559       5.87770700       8.21725082      -0.05549175    -609.79414160       0.28533657      -0.80500906       0.10008710
N        5.37182903      -0.01989647       9.31889153      -0.14377370    -609.76632016       0.43034188      -1.60861643       1.22629480
N        6.79002953       6.88088846       9.45234394      -0.07703836    -609.54648445       1.57204140      -1.31979403      -0.03438317
N        0.69489330       0.45672187       9.76208687      -0.05535176    -609.80093432       1.47132098       0.11523043      -1.13967914
N       12.40254974       4.53295565       2.64592385      -0.13857675    -609.80838066      -0.99994800       1.83547263       0.94235119
N        6.97034931      11.44689465       2.45281792      -0.09543479    -609.65113040       0.09003016       4.90203132       0.12876594
C        6.00495768       6.13365984      10.12282467      -0.04750781    -609.96927779      -0.39823072       0.24158784       1.29255994
C       12.05159664      12.20776653       9.53575516      -0.11217268    -609.95469146       0.03311928       0.30869064       0.62734309
C        0.44411418       5.80441284       3.45994711      -0.11393528    -610.01709931       0.47039089      -0.19917715      -0.64075512
C        6.33921909       0.29240093       3.36868834      -0.11834216    -609.93695935      -0.12457996       1.32223640       0.78991542
C        6.20186520       4.83612204       3.73415136      -0.06489326    -609.95505873       2.14112278      -0.54879814      -1.17810128
C        0.32188833       0.28935280       3.68615174      -0.11339787    -610.11169665       0.57847622      -0.33254084      -0.05202487
C       12.26430511       5.32237530       9.08853054      -0.10600189    -609.92527669       0.64194428       1.58946143      -1.16661492
C        7.21150398      12.40024471       8.89329720      -0.11389058    -610.03791377      -0.32182213       0.14016839       0.81564414
H       11.97216988       6.05516672       9.85597134       0.06595878    -609.00256977      -0.33269013      -0.21845841       0.04586177
H        7.30811119      12.58569813       7.83185863       0.02693477    -609.22285145      -0.25297907      -0.10089812      -0.33144314
H       11.46151638       5.14345074       8.36227131       0.05126895    -609.08022638      -0.27416011      -0.09596645       0.57020846
H        7.67035675      13.23166752       9.43770885       0.03405996    -609.20106135      -0.14482843       0.07584737      -0.07081290
H        0.24717887       4.39926672       9.55718422       0.05770411    -609.09718603       0.34658038      -0.65518973       0.15955285
H        7.71120405      11.48687363       9.17625523       0.03899828    -609.20890415       0.30062213      -0.37917873      -0.15361630
H        1.32954431       5.65281010       4.09270382       0.03523887    -609.26162803      -0.21221123      -0.22747683      -0.23170811
H        6.09133101      -0.04976194       4.43181562       0.07079970    -609.11534834       0.34898412       0.16398891      -1.06573008
H       -0.40562093       6.05879068       4.07646275       0.03876342    -609.24597409      -0.36267067       0.06957562       0.22215554
H        5.45755863       0.98114854       3.07520676       0.06761193    -609.10155961       0.99265615      -0.92281574       0.04926471
H       12.94954205       6.62636995       2.74445963       0.04867156    -609.18355226      -0.06702277      -0.42347284       0.28348301
H        7.24338770       0.94988769       3.46028519       0.06309439    -609.12496536      -0.67603668      -0.61076690      -0.22496559
H        7.12314320      12.62857151      12.37527084       0.17552224    -608.78471216      -0.51640704      -0.11098787       0.14323977
H        5.14712286       0.51993358      10.18556499      -0.00174400    -609.42316514       0.13913855      -0.24327357      -0.40679256
H        1.97860181       5.99439859       8.60889149       0.04733957    -609.37381279      -0.51718111      -0.03301863       0.28647481
H        4.76085281       0.29915455       8.58890533       0.00328635    -609.46654515      -0.75069496       0.47095139      -0.83236711
H        0.76993179       6.75021410       7.77533150       0.04798777    -609.36523143      -0.11791608       0.06684311       0.05064820
H        5.04582357      -1.04066896       9.53193951       0.02104951    -609.36832455       0.62948046       1.41767894      -0.43671477
H       12.08436203       4.93346977       1.74853837       0.00654328    -609.43135404       0.24557652      -0.75816237      -0.16476773
H        5.52505636      10.95521927       6.14028883       0.15273041    -608.87730319       0.49089847      -0.31759267       0.45380218
H       -0.73405898       4.04970407       3.07245111       0.01284347    -609.40403925       0.31763975       0.01777771      -0.19025300
H        6.21713400      10.87778854       2.70192289       0.04779568    -609.16180092       0.03479040      -3.13351649      -0.09833455
H       13.19810009       3.86470914       2.61376095       0.00104075    -609.42728109       0.28031504       0.04639295      -0.28014866
H        7.94761086      11.42514229       2.09502864       0.04845593    -609.00401228      -1.47138974      -1.23618263       0.46457945
H       -2.29195237       1.18334532      13.03669643       0.13467346    -608.80332955      -1.04887660      -0.77404345       0.45087996
H        6.36508274       7.66573095       8.97663879       0.06617375    -609.13942390       0.26855514       0.75751125      -0.50349837
H        8.37905312       6.22371244      15.27945995       0.05813968    -609.04154158       0.11304712       0.05970223       0.13204554
H        1.70101190      12.27250767      10.43836689       0.05417823    -609.31802162      -0.85948109      -0.28138485       0.12695949
H        1.26939714       0.39033228       8.89356804       0.04709277    -609.36696286      -0.61313260       0.22455375       0.49796439
H        7.85763693       6.68348503       9.43173218       0.07890823    -609.06747619      -1.77438595       0.77142721      -0.24587616
H        4.95012522       6.46858597      10.23884106       0.06644958    -609.21170899       0.52729554      -0.53170857      -0.28769869
H       11.58315849      -1.18097675       9.56124401       0.06101596    -608.98864344      -0.06029980      -0.00397024      -0.02931807
H       16.98389626      -0.98386294       1.60148084       0.24933194    -608.23264436       0.19531223       0.01655129      -0.44748853
H       11.62336349      12.58229637       8.58833790       0.04891303    -609.10915156       0.32810028      -0.17159144       0.20446980
H        6.43683767       5.35675764      10.76960087       0.06851415    -609.15377403      -0.38880551      -0.10238512      -0.43500300
H       11.43275166      12.63622475      10.33413410       0.05236781    -609.09236637      -0.38299319      -0.23437502       0.04976360
H        7.99394274       5.93260908       2.12768054       0.05222052    -609.01770587      -0.04886742       0.18302918       0.08076200
H        1.20385337       0.01790656       4.26964903       0.05072441    -609.17431558       0.04620695      -0.29956387      -0.17657281
H        5.35143805       4.19631338       3.58732486       0.07285069    -609.05369502      -0.51723687      -0.02542336       0.47378860
H        0.04486738      13.09473038       4.35339212       0.04784729    -609.19907312       0.04611052       0.83682871       0.02513556
H        7.19303417       4.53188086       3.33096671       0.07501207    -609.00034398      -0.81197180      -0.38698397      -0.10023119
H        0.62801343       0.86781186       2.80131340       0.03924552    -609.24848306      -0.02130065       0.11390454       0.48356409
H       11.94698238      11.71867943       2.21816969       0.01478270    -609.19888682       0.04824330      -1.72769962       0.86405659
H        6.87246799       6.73151064       3.68857074       0.06610163    -608.99359953       0.34180521       0.05289188       0.61541792
H       11.38071060      11.37216759       3.84176135       0.02262728    -609.10469642       0.04970740       0.95471990      -1.43085785
H       11.64939880       9.35016823       4.65670109       0.22958754    -608.33418228       0.13359874      -0.02807098      -0.44185837
H        5.40617466       6.32392550       4.75918722       0.05428432    -609.16816470       0.64675695       0.60201393      -1.29209046
H       11.93457127      -1.90045428       3.68830514       0.06058062    -609.03527591       0.62545592      -0.25254595      -1.21213478
96
Lattice="12.299111366271973 0.0 0.0 0.397482693195343 12.292691230773926 0.0 0.0 0.0 12.580405235290527" Properties=species:S:1:pos:R:3:initial_charges:R:1:energies:R:1:forces:R:3 original_dataset_index=84 energy=-58459.42460952414 pbc="F F F"
Pb       9.77086163       9.33719921      12.32627296      -0.13952383    -607.31679393       0.35848350       0.63139317       0.23192775
Pb       2.55298781       2.65246677      12.19335365      -0.11645682    -607.10456128       0.68293680      -0.01052584       0.26820517
Pb       3.92830300       8.59167576      12.68545437      -0.13154206    -607.15961230      -0.29226426       1.27197988      -0.43494200
Pb       8.95265579       3.55525970      12.94232845      -0.14141092    -607.36320667      -0.24025913      -0.54513532      -0.23026772
Pb       9.59849453       8.85344982       6.24748898      -0.13860311    -607.41464141      -0.17329291       0.79223950      -0.01734445
Pb       2.95166826       3.19326615       6.14833832      -0.14127916    -607.50890005      -0.03994936      -0.27780178      -0.27595419
Pb       9.40896893       2.65831304       6.25609589      -0.11845251    -606.88917482      -0.09518342      -0.22299261       1.42641449
Pb       3.40154552       9.43568325       6.18631935      -0.13216203    -607.35917537      -0.05547265       0.33745139       0.40662865
I       10.40910721       8.51766300       9.29903793       0.14044483    -608.51107642      -0.19442393      -0.19551843      -0.08204778
I        3.51313949       2.82507968       9.08115005       0.12904879    -608.44879327       0.11675253      -0.04279099       1.26585409
I        9.28012848       2.90089417       3.48724508       0.11332624    -608.51895535      -0.09820142       0.22830328      -1.27251569
I        4.46173429       8.99895763       3.22350740       0.13161036    -608.57039206      -0.54955592       0.23675087      -0.00638986
I        2.51405764       3.74572563       3.02047753       0.14956163    -608.55816440       0.02848404      -0.05152801      -0.00208197
I        9.75663948       9.55143833       3.13438535       0.15061317    -608.60102146      -0.35934332       0.06799972      -0.33330829
I        2.84777427       9.81310558       9.92227554       0.15845342    -608.41110537       0.62447575      -0.30295753      -0.89551896
I        9.52565861       2.96673131       9.80869102       0.13323890    -608.41283167      -0.74507999       0.64692704      -0.14358772
I       -0.33584842       2.27770901      12.62661362       0.12672798    -608.36563372       0.13472764       0.26615578      -0.31250301
I        6.83285332       8.54690933      12.32993603       0.12968600    -608.40473215      -0.80423621      -0.27994172       0.00639055
I        9.73028564       6.30691576      -0.32291985       0.13194503    -608.37818474       0.68172947      -0.05018048       0.27062907
I        4.06745195      12.04696751       0.22001611       0.13025546    -608.48561503      -0.35465268       0.42987129       0.01600444
I       12.41367817      10.17811966       6.04407501       0.14321642    -608.46668136       0.07441499      -0.51465791      -0.18083082
I        6.18303299       4.18936872       6.38869619       0.15102422    -608.55895961       0.02577869      -0.30433554      -0.85082498
I        2.70053267       6.50257826       6.09518194       0.13641739    -608.59036429      -0.25662024      -0.20188746       0.11815292
I        7.71706438       0.18307976       6.50248909       0.14083789    -608.31288565       1.22646786      -0.13069394      -0.35552828
I       12.54984570      10.28401375      -0.42328966       0.14849195    -608.42739709       0.13317225       0.20693985       0.75471126
I        5.87389517       3.72470331       0.12326675       0.14558384    -608.54853451      -0.01555536       0.07235197      -0.01612122
I        2.39183784       6.07886934      12.80180645       0.12298934    -608.25919105       0.13740178      -0.88822157      -0.81319562
I        8.41085148       0.44012013      12.67217350       0.14816764    -608.52429134       0.07472216      -0.54726649      -0.31544536
I        0.35370815       1.26837301       6.78311586       0.14773345    -608.36742773       0.41816374       1.26878891      -1.03937347
I        6.23101568       8.49703407       6.73858643       0.14609861    -608.51376187       0.41476471      -0.04748146       0.10692585
I       10.55453968       6.06332684       6.06072903       0.12598112    -608.48372158      -0.09413579      -0.66914730       0.27281541
I        4.92910194      12.76004219       6.37219334       0.13658476    -608.27898482      -1.46118780      -0.16884332       0.12836678
N        5.81903887       5.71368980       2.97914791      -0.13492125    -609.74795340      -0.72488679      -1.18080575      -1.45218313
N       12.17939568      12.85757256       2.65425754      -0.14573446    -609.74495820      -1.44461297      -0.70466334      -1.27432511
N        1.59102166       5.77276087       9.62256336      -0.11759173    -609.34904684       0.15832817       2.12277447      -1.28325115
N        5.51626921      -0.22978903       9.76877785      -0.13676535    -609.70232912       0.00103726       2.48283835      -1.76421224
N        8.16792679       5.74601412       8.35312366      -0.15174793    -609.82447372      -1.12995410      -5.17444304      -1.63996289
N       -0.91694099       0.41171286       9.49944878      -0.13313971    -609.65767324      -2.28394282       0.76738692       1.28359769
N       12.43139744       6.69750309       3.55645704      -0.13187768    -609.78748311      -0.34344335       0.11758653       0.72391440
N        6.64342260      11.46382332       2.27474022      -0.14149241    -609.73505564      -4.11918335       2.69442399      -1.16624785
C        7.08215523       5.71358824       9.29204655      -0.11054379    -609.98924753      -4.19069652      -0.52296974       2.03260860
C       10.75663090      11.99908733       8.73331451      -0.13129318    -609.98484078      -0.17347844      -0.32281371      -1.34569453
C        0.63644636       8.01002789       2.93491697      -0.11104386    -610.04500378       0.86826724      -0.20859496       0.69569028
C        5.95195913       0.36144951       3.14830089      -0.11798196    -609.90992048       4.95175689      -0.15651700       0.44822024
C        6.91730404       6.73539877       3.26670146      -0.11266737    -610.07669366       0.10755977      -1.45876583      -1.08680123
C        0.86521339       0.46753317       3.16566825      -0.10601825    -610.05352316       1.18468857      -1.94141299       1.13136072
C       12.84496498       4.90493441       9.79714489      -0.11980984    -610.00345146      -1.56335503      -3.48305972       1.26243777
C        6.73829222      10.82807064       9.49503326      -0.11734506    -610.04695681      -1.56767964      -0.29904593       2.43493341
H       11.93433666       5.47091818       9.70324421       0.05833707    -609.09736173      -0.67594981       0.22274776      -0.27775588
H        5.90649700      10.06540394       9.32900429       0.04847505    -609.16579674       1.58894048       0.38002139      -0.13850992
H       12.85851192       4.02200270       9.07139683       0.07835859    -609.01060728      -0.22778844       0.63249837       0.71876506
H        7.31056023      11.14541531       8.63082695       0.04746509    -609.13624146       0.61541853      -0.81943340      -0.04514738
H        0.45193806       4.47798061      10.83897495       0.04531789    -609.15301776       0.19744905       0.29140089      -0.67561226
H        7.29375982      10.60956669      10.52142525       0.05294705    -609.13446746      -0.77966139       0.25954317      -2.42975712
H       -0.11936865       8.36160755       2.20150614       0.04355699    -609.17632532       0.74252616      -0.31792732       0.20926331
H        5.75467062       0.16293706       4.18177223       0.03271694    -609.21360923      -0.46114530      -0.65766270       0.26037097
H        1.68503404       7.85448885       2.56124878       0.03337467    -609.20108462      -1.06353900       0.12617203       0.02914963
H        5.33930063       1.03791571       2.70039058       0.05804296    -609.11313051      -2.63809464       1.35617573      -1.40810725
H       12.99130821       8.76264191       3.77556777       0.05172669    -609.16863915      -0.13180659      -0.66663306      -0.76483809
H        6.89895487       1.01620734       3.18639231       0.05894832    -609.13742002      -0.71200301      -1.13994920       0.00364828
H        3.00984144       5.69363832      10.64363670       0.23661928    -608.14331045       0.24057674       0.48107167       2.06603130
H        4.52685928      -0.42676729      10.03587437       0.01008911    -609.41408444       0.52026686      -0.08428026       0.21931838
H        2.54572058       5.39821100       9.64307308      -0.01298620    -609.12244493       0.43877014      -1.08614849      -0.41943039
H        6.00408840       0.34594777      10.51057816       0.01477707    -609.41329927      -0.82267862      -0.23628526      -0.88652300
H        1.52387464       6.00446033       8.65097237       0.03231588    -609.10518867       0.68021342       1.47420013      -1.12818562
H        5.38083363       0.38170174       8.75980759       0.04827387    -609.27664399       0.37701578      -1.44016744       2.57575732
H       12.08846283       6.91414118       4.57388496       0.01133850    -609.43026863       0.37290109      -0.52279138      -1.50634531
H        6.41183472      10.58486462       2.62403274       0.01607748    -609.37649828      -0.15321852      -2.17975595       1.55658184
H        0.80148834       5.86123133       3.68218422       0.02364803    -609.38793748      -0.44654309       1.27196110      -0.60924519
H        7.45793962      11.45521355       1.71752453       0.00811893    -609.43873377       1.93810434       0.35098247      -0.63165871
H       11.58384037       6.37246656       3.03690243       0.02048036    -609.39661521       0.66674593       0.09265855       0.42538996
H        5.80151367      11.56408405       1.51571584       0.01539671    -609.38537953       1.57368316      -0.21399591       0.86950808
H       -1.62067497       1.33981216       9.88285828       0.01853693    -609.30066914       2.38844217      -1.54944724      -0.53422565
H        8.71751881       6.51332188       8.48254013       0.00756363    -609.38625188       2.29484688       3.25910767       0.39227611
H        8.84188175       4.84263086       8.37285137       0.03234538    -609.22030225      -1.38039746       1.81231335       0.41511564
H       -0.18561919      12.09389782      10.23635578       0.01040446    -609.40894267       0.30443044      -0.07061839       0.78040344
H       -0.14346792       0.64370728       8.82477093      -0.00522027    -609.42731132      -0.36490296       0.32047409       0.56309062
H        7.69083548       5.68425274       7.36540079       0.00681398    -609.36455284       0.76613790       0.30271968       1.17800495
H        6.41671324       6.59548044       9.04261684       0.05692331    -609.17558851       0.60851827      -0.67444289       0.23094080
H       10.11634254       0.38631728       7.89277697       0.03210815    -609.16613898       0.18354170      -0.87816709       0.08693923
H        7.24608088       5.78472900      10.41188717       0.05395348    -609.20133166       0.84013343      -0.03571056      -1.33063582
H        9.79187775      11.73264122       9.16097546       0.06014670    -609.13944611       0.03250144       0.64480675       1.07308070
H        6.32685328       4.79307938       9.19760323       0.06512109    -609.12756938       1.97545837       1.57902427      -0.26490899
H       11.12978935      11.01742935       8.44446850       0.03154409    -609.19082793       0.29604896       0.22394841      -0.59608073
H        6.99515533       7.48862267       2.43822217       0.04196121    -609.19945806       0.12767008      -0.97297019       0.53523858
H        1.06163943       1.42845786       3.72884226       0.04674937    -609.16657845       0.13207950      -1.12866787      -0.71781712
H        7.81959438       6.11642122       3.44322896       0.05091336    -609.20012432      -0.13092240       0.63066524      -0.12010339
H        2.02821183      12.50980568       2.32718277       0.05508868    -609.17056354      -1.25279799       0.64385908       1.30842954
H        6.59037161       7.21896029       4.14670467       0.03911056    -609.18582695      -0.00951765       0.68496360       1.15429580
H        0.82170045      -0.44968519       3.96053028       0.06793797    -609.09864533       0.40790543       2.03647251      -1.74740058
H       11.90023136      12.22521210       1.81690764       0.02145114    -609.37250717       1.05163315       0.92571854       0.78573813
H        5.36719322       5.28668928       3.86606479       0.01607242    -609.41271883       0.85129426       0.67898163      -1.22251451
H       11.88804054      13.85135174       2.38874960       0.01547064    -609.33609392       0.27571641      -1.24441979       0.36269286
H        6.13995171       4.86412001       2.30727243       0.03110873    -609.33366432      -0.62563824       1.67789529       1.33874327
H        5.05041409       6.15892982       2.38625169       0.00923834    -609.44942519       0.74326881      -0.53558977       1.09026747
H       11.15572548       0.17439756       3.35887694       0.01273501    -609.43153294      -0.38910138       0.35751829       0.53043179
96
Lattice="12.299111366271973 0.0 0.0 0.397482693195343 12.292691230773926 0.0 0.0 0.0 12.580405235290527" Properties=species:S:1:pos:R:3:initial_charges:R:1:energies:R:1:forces:R:3 original_dataset_index=340 energy=-58452.05775689421 pbc="F F F"
Pb       9.78990173       9.35144043      12.36804199      -0.14341007    -607.39053412      -0.34047338      -0.32815206       0.15740874
Pb       2.73520350       3.18815017      12.24565887      -0.13875802    -607.25806652      -0.31275873      -0.06221248       0.19468115
Pb       3.43171644       8.62299824      12.56224060      -0.11946543    -607.13689195       0.37621608       0.81708905       0.33336621
Pb       8.74730301       3.69379568      12.75997066      -0.11458785    -606.92797281      -0.57798107      -0.10346303      -0.04699220
Pb      10.05656052       8.78133965       6.24280214      -0.14394526    -607.09952333       0.25781998       0.51703810      -1.34635072
Pb       2.92192531       3.26236057       6.37778521      -0.14076932    -607.45484636      -0.10851981       0.44954282      -0.14602888
Pb       9.34025288       2.73954654       6.63116837      -0.14926854    -607.54375416      -0.28064121      -0.14254872      -0.40150228
Pb       3.25494504       9.39732933       6.27646685      -0.14156160    -607.28552786      -0.36192532      -0.99455331      -0.33180896
I        9.70596409       8.60363293       9.23050308       0.14033446    -608.58976991       0.05238147       0.10228297       0.95825234
I        3.71901941       3.39776015       9.44024086       0.13190900    -608.60073386       0.35258897      -0.14580219      -0.33838774
I        9.50435829       2.66503072       3.33826828       0.14209269    -608.54465239      -0.13617440       0.11347157       0.10461715
I        4.42747784       9.37466621       3.16633368       0.15239438    -608.45258382      -0.58111962      -0.09939012      -0.03772226
I        3.01911998       2.80909276       2.93922019       0.14415570    -608.50847976      -0.27783660      -0.12545828       0.45202431
I        9.42737770       9.58867550       2.92515254       0.12531874    -608.28074425       0.35396191      -0.77211521      -0.68119541
I        3.67023063       9.02678204       9.36673164       0.13472797    -608.56014053       0.04216168       0.03045249       0.46231082
I        9.07859802       3.36952567       9.65616226       0.13818765    -608.53028790      -0.27193398       0.15910270       0.45884394
I       -0.90816003       1.96872985      12.88409424       0.09778054    -608.32322661       1.25369128      -0.01103976      -0.39400423
I        6.64533424       9.13809776      12.32089043       0.15976527    -608.27687480      -0.23301546      -0.33735682      -0.19689744
I       10.01887131       6.30140591       0.13131516       0.12159579    -608.50336423       0.63329412      -0.00709122      -0.21385230
I        4.58633566      12.56187439      -0.18002503       0.08650111    -608.26765957      -0.59658750      -0.52021289       1.20817008
I       12.75680161       9.96403503       7.02414465       0.12004173    -608.42453584       0.53040653       0.14932891       0.38354573
I        6.00078964       3.01652479       5.98362827       0.14060441    -608.37771087       0.69345016      -0.00477925       0.22219597
I        3.42801213       6.28013515       5.75189877       0.13601585    -608.45736359      -0.35501688      -0.11658977       0.31873806
I        9.08673286      -0.35242569       6.17134523       0.14003597    -608.39981555       0.04389973       0.24187554      -0.16038866
I       12.77258873      10.02865791       0.02587421       0.13449076    -608.58094358       0.57198735       0.13368231      -0.04879169
I        5.47917318       4.05225515       0.47720173       0.14042135    -608.43110588       0.72442272       0.29460689      -0.03272838
I        1.96936858       6.15433836      12.00505066       0.12530172    -608.49885170      -0.43785419      -0.40012964       0.14150203
I        8.37788582       0.15646167      12.17573357       0.07216360    -608.02988640      -0.59522939       0.09331452      -0.32192697
I        0.04853398       2.28882861       6.74166727       0.13186160    -608.56638085       0.00125245       0.03974925       0.02672603
I        6.56876898       9.43511486       6.72086382       0.10998985    -608.48386361      -0.00110356       0.18422711      -0.61189696
I        9.86325550       5.74075699       6.12144566       0.13171376    -608.57173342      -0.12716166       0.01150072      -0.28379374
I        4.05006170      12.25242424       6.42580557       0.10514842    -608.29425355      -0.04783722       0.80600408      -0.34547887
N        6.20051718       6.09019184       4.08066320      -0.08635090    -609.63599467       0.42331450      -0.21641241      -0.98504404
N       12.24189281      11.42657757       3.19518375      -0.17078525    -609.65195735      -2.23004881       0.99641083       2.32774039
N        1.03359222       5.86168623       8.22374916      -0.05614395    -609.81976001      -1.11015966      -0.66394507      -0.35825649
N        5.36681843      -0.03247298       9.31320286      -0.14524470    -609.74277097       0.52815309      -0.03665648      -1.38560226
N        6.78437519       6.87192583       9.43393421      -0.07694335    -609.55714527      -2.72046784       0.85137870      -1.04047091
N        0.71322149       0.45400122       9.77233028      -0.05617401    -609.78081395      -1.02442459      -0.35933001       0.75924798
N       12.41817665       4.56762314       2.65296984      -0.14048754    -609.80373343       0.66532818       0.25095749       0.39604291
N        6.95320797      11.48596096       2.48211861      -0.06899063    -609.52543890      -3.38440865      -2.54496762       2.17688355
C        5.99605942       6.11662149      10.09977531      -0.04534078    -609.92410313      -0.39341633       0.28604177       0.54889392
C       12.04817200      12.22525024       9.55329418      -0.11376899    -609.95166180       0.17240830      -0.85449888       0.81126569
C        0.45335647       5.81141424       3.46118498      -0.11220346    -610.03194308       0.05837205      -0.23131145      -0.31753552
C        6.31808710       0.33556318       3.34468627      -0.12572159    -609.83714964       2.23178622       0.41937560       0.92720337
C        6.21685553       4.82547951       3.72669458      -0.05965525    -609.91550734      -0.15437455       1.04880858       0.22830152
C        0.35452902       0.27569097       3.67868090      -0.11146519    -610.08950023       0.70428059       0.72828386      -0.18637605
C       12.25580978       5.32590628       9.07905674      -0.10711622    -609.92755957       0.88097957      -0.43665641      -0.58494895
C        7.21497393      12.39643097       8.87299156      -0.11257483    -610.00700963      -0.14029830       0.21229354       0.73769607
H       11.87036228       6.03097248       9.80731583       0.06623366    -609.01725828      -0.05825701       0.22280673       0.54303983
H        7.25154448      12.59830379       7.79855680       0.02878112    -609.22419770       0.03167613      -0.03456029       0.14863678
H       11.41804886       5.04881287       8.43878269       0.05062255    -609.11109422      -0.08963336       0.00721355      -0.13015989
H        7.66566610      13.22100639       9.46592140       0.03414204    -609.17005505      -0.26281304      -0.21237339      -0.57145903
H        0.28362426       4.37569857       9.55516243       0.05771746    -609.09169509      -0.04591430       0.50168300      -0.05350424
H        7.74899292      11.47345352       9.12906170       0.04223895    -609.19371637      -0.11703617       0.02774890      -0.25428121
H        1.37443042       5.61074066       4.05359268       0.03469044    -609.24311949      -0.74035305       0.17597619      -0.14417557
H        6.16991758      -0.23972879       4.21497917       0.08736810    -608.75167180      -0.60754338       1.02433299       2.30250337
H       -0.44557375       6.04091311       4.05202389       0.03729129    -609.23548549       0.43969971       0.15474581       0.17271310
H        5.47413301       0.97082388       3.20507503       0.06577253    -609.07210809      -0.92512564       0.50328558      -0.85476820
H       12.95887852       6.61872339       2.72763538       0.04778362    -609.17055521      -0.07011207      -0.32388132       0.43094964
H        7.20265627       0.96754867       3.59621859       0.06923778    -609.09134656      -0.37986451      -0.19330108      -0.43455311
H        7.10236883      12.55666733      12.32747746       0.17918357    -608.81826325      -0.19002159      -0.13588038       0.16973300
H        5.19110584       0.52084708      10.13134098      -0.00520070    -609.39978294      -0.19190670       0.40402020       0.65578499
H        1.96101367       5.90600252       8.61037159       0.04541158    -609.36133398       0.07366183       0.37116459       0.32354134
H        4.71019220       0.30082738       8.55676174       0.00630419    -609.43013038       0.28163127      -0.09257054       0.20744504
H        0.73671347       6.69459057       7.71105719       0.04714296    -609.34216698       0.41089391      -0.14110323       0.30173969
H        5.09745836      -1.00696158       9.47693539       0.00824905    -609.42585303      -0.08738534      -0.39800871       0.19047757
H       12.18188763       4.92249155       1.71883261       0.00272722    -609.45982617      -0.18277946      -0.67911910      -0.12971158
H        5.54425907      10.79470921       6.01272631       0.15615286    -608.85344874       0.45642032      -0.23586486       0.60627335
H       -0.63128555       3.96441746       3.04987717       0.01373496    -609.40110592      -0.56487985       0.43638104      -0.08791021
H        6.59022331      10.65987206       3.42533898       0.12805556    -608.63193647       1.99462162       1.58710566      -4.89684179
H       13.23849297       3.89362979       2.65553856       0.00212936    -609.44159246       0.02326068       0.55274331      -0.42722691
H        7.88258743      11.32527924       2.13011217       0.05982573    -609.11650559       0.46097777       0.01415156       0.56192503
H       -2.37626362       1.18024588      13.17925262       0.13156393    -608.85114352       0.24181741      -0.03589748       0.16226594
H        6.36349201       7.66962051       8.85821056       0.07583669    -609.12458204       0.73242426      -0.84878238       0.91578302
H        8.43032265       6.18277454      15.26008511       0.05916247    -609.04767544       0.02503072       0.03282228       0.09922562
H        1.59335709      12.21756268      10.49814510       0.04700991    -609.32880058       0.18744808      -0.10178172      -0.39916451
H        1.17818618       0.46245483       8.88845253       0.04439781    -609.35754923       0.90347673      -0.14716681      -0.44531137
H        7.76094913       6.75128937       9.43153667       0.06906763    -609.15644600       1.91559868      -0.11910648      -0.19371184
H        4.91909313       6.44102383      10.13136196       0.06694175    -609.18216096       0.87586800      -0.72889418       0.00520397
H       11.47906876      -1.20732510       9.52081871       0.06953237    -608.99635412       0.57951536       1.27692771      -0.03967176
H       15.75818348      -0.15133180       1.32833600       0.20047036    -608.75355255       0.55370078       0.15256341      -0.71718809
H       11.71804619      12.64755154       8.61495304       0.04788158    -609.08821179      -0.50757297       0.05328608      -0.25983732
H        6.44791412       5.29732323      10.69905472       0.06794725    -609.16288204      -0.62808871       0.37852065      -0.35754913
H       11.43634129      12.58706188      10.38620186       0.05236145    -609.10760322      -0.38736499       0.12873463      -0.08807368
H        7.98989916       5.91416788       2.13441849       0.05229119    -609.01690722      -0.00386903       0.17787678       0.12815874
H        1.24947596       0.00486058       4.25810575       0.04988149    -609.16242610      -0.28853548      -0.32021422      -0.21448571
H        5.33943796       4.20888615       3.59028077       0.07191061    -609.04213824      -0.22496788       0.08096310       0.43301866
H        0.06650510      13.13240433       4.32019138       0.04664567    -609.18675512       0.52491606       0.36646116      -0.11063241
H        7.15609598       4.51807165       3.33577490       0.07068422    -609.04963674       0.60665258      -0.67328297      -0.62634333
H        0.69228339       0.89200211       2.80421996       0.03746878    -609.22978126      -0.33771075      -0.51077870       0.73326844
H       12.00061226      11.52998352       2.21424317       0.00275307    -609.28718048       0.23684587      -1.06527985      -0.47335188
H        6.88049316       6.73034859       3.60823560       0.06477297    -608.98631434      -0.42102077      -0.56856961       1.22315557
H       11.31647396      11.55902481       3.70350337       0.01941538    -609.20469110      -0.02891017       0.62012865      -0.87472463
H       11.35867214       9.32616329       4.67600727       0.23350108    -608.33673990      -0.05791200      -0.31392165       0.16188755
H        5.41452408       6.42415857       4.66074753       0.05632605    -609.20500778      -0.12438965       0.41041170      -0.50723265
H       11.82434845      -1.77608955       3.71486282       0.02661484    -609.16259864       1.21644182      -1.20386276      -0.72253683
96
Lattice="12.299111366271973 0.0 0.0 0.397482693195343 12.292691230773926 0.0 0.0 0.0 12.580405235290527" Properties=species:S:1:pos:R:3:initial_charges:R:1:energies:R:1:forces:R:3 original_dataset_index=476 energy=-58449.354131274195 pbc="F F F"
Pb       9.57487106       9.18539333      12.83567810      -0.14202718    -607.36020538       0.48589237      -0.27662656      -1.68995934
Pb       3.23517203       3.11390114      12.45424938      -0.14025371    -607.36177689      -0.00144923       0.47107802       0.91575755
Pb       3.46382236       9.02758884      12.61288166      -0.13452849    -607.34382699      -0.46760394      -1.15609563      -0.32421391
Pb       8.43928528       3.06954956      12.72142601      -0.11033166    -607.03228222       0.08898467       0.26966969      -0.23863968
Pb      10.40647697       9.06336689       6.10305262      -0.13983047    -607.11517029       0.76670020      -1.61649165       1.40032079
Pb       2.93336439       2.93223119       6.33595419      -0.13635118    -607.40867167       0.12293012       0.32735155      -0.39323131
Pb       9.13640308       2.80591774       6.40848494      -0.13125789    -607.38551644       0.13959800       0.32139673      -0.13809369
Pb       3.27568388       9.27625179       6.24050283      -0.12007228    -607.11467149      -0.36143777      -0.21179178       0.59739635
I        9.12380123       8.84965992       9.07627010       0.16366930    -608.34616700       0.53284852       0.27199260      -0.47213428
I        3.70908356       2.79296660       9.61398125       0.12133487    -608.58020808      -0.04384522       0.12507340      -0.59996139
I        9.65808582       2.94119883       3.20193291       0.13421214    -608.62098245       0.12301833      -0.11467089      -0.26603353
I        3.76180816       8.88663006       3.05327559       0.12657596    -608.43938954       0.21612405       0.76385779      -0.04088657
I        2.08635592       3.17477584       3.20524359       0.14072223    -608.34652468       0.67123239       0.09492766       0.54914271
I        9.68550491       9.27120876       3.05999064       0.11826111    -608.52074110      -0.59389890       0.17688599       0.26433300
I        3.93842506       9.38747978       9.42264938       0.13552551    -608.45864283      -0.52816245       0.41640215      -0.31391530
I        8.86592007       3.51704192       9.50581360       0.13737671    -608.58405355       0.09446899       0.07681986       0.32202725
I        0.21740332       1.92406476      12.84791088       0.11068873    -608.34556110      -0.33411174      -0.48243606      -1.38737993
I        6.84565115       8.23420238      11.92056656       0.13046736    -608.15202938      -0.26709589       0.95296479       0.92775614
I       10.60986233       6.26470280      -0.63234228       0.16791527    -608.43701462      -0.27588772       0.09695906       0.47052971
I        4.18416309      11.95886230       0.16070491       0.08949266    -608.28329133       0.18354447       0.50610289       0.12081549
I       12.85165596      10.18335342       7.67333508       0.13720067    -608.40630564       0.63572858       0.38274525      -0.22602683
I        6.05086851       3.72389221       6.42673874       0.14080906    -608.40361813       0.10162746      -0.01936862      -0.25752766
I        3.16903615       6.15068674       5.46384001       0.14063068    -608.31902940      -0.53597093       0.12539763       0.05422725
I        9.35442352      -0.30421436       6.20253658       0.12063081    -608.39605810      -0.24176916       1.02055663      -0.04331044
I       12.88111210      10.18840981       0.17993572       0.14765248    -608.60857345       0.17875082      -0.09971050      -0.03130829
I        5.75301361       4.92045927       0.34009880       0.13323395    -608.44521854       0.36151450      -0.76854731       0.09589860
I        2.08055639       5.89026499      13.02939987       0.15234491    -608.35586315       0.05754315       0.30945545      -0.41940225
I        7.83684158       0.10888439      11.97370625       0.14087541    -608.63150001      -0.14203856       0.01196443       0.24073700
I        0.06816444       1.99789381       6.65464544       0.13003094    -608.54922241      -0.38090205       0.29694898       0.14535107
I        7.15585279       9.04285908       5.96448851       0.09213957    -608.06773727      -1.55825413       1.54976771      -0.91463438
I        9.20605946       6.04433870       5.82551336       0.13417707    -608.39727571      -0.04920313      -0.59526890      -0.28667655
I        3.85980844      12.24167919       6.20543480       0.12335105    -608.50409091       0.23482091       0.05284213      -0.27250261
N        6.30853939       6.89968872       3.73216701      -0.08729559    -609.56015527       1.70407045       0.26885081      -0.36327242
N       12.95130730      12.79896164       3.48107624      -0.15683074    -609.69518682      -0.24865630       0.41408454       0.98462482
N        0.61721778       7.03799629       8.60896301      -0.12966426    -609.31950261      -1.41859628      -0.05944808      -0.63459792
N        5.61412907      -0.06197683       8.98711395      -0.13725586    -609.74583420      -0.09157930      -0.96785652      -1.99294730
N        6.88891697       6.28216982       8.73941040      -0.08854188    -609.58320080       1.54921541      -2.44542569      -4.14766119
N        0.38589162       0.66200417      10.05359173      -0.05881807    -609.86859776       0.89380263      -0.15118987      -0.45698146
N       12.38501835       6.15233612       3.38793492      -0.14534615    -609.68424169      -0.64521800       1.72023484      -0.93639172
N        6.87559700      12.84029675       4.47381878      -0.06728938    -609.62526184       0.73504618      -0.42804836       1.97402548
C        6.05267620       6.81972218       9.47012138      -0.07678464    -609.73152881       0.26625415       0.34400751       1.74941913
C       11.58452797      12.91717911      10.03874969      -0.11334608    -609.91255577       1.36682824       0.02301811      -1.70551280
C        0.40213221       7.67752123       3.35435200      -0.12433695    -609.97531894       1.14546217      -1.85507942       1.58181656
C        5.68324232       1.35501599       3.13766885      -0.11620883    -609.69230092       1.59718074      -1.75287139       2.67530276
C        6.18027973       5.65135908       3.56213355      -0.05646174    -610.00555729      -0.39353113      -1.14539502       0.36715571
C       -0.05416103      -0.85701036       3.97614169      -0.12409856    -610.00114514      -1.65875406      -0.69182427      -1.03175279
C       13.21385574       5.77124262       8.41270924      -0.05701979    -609.46031051      -1.79778842       4.83000476       1.38809732
C        7.21571255      12.74376678       8.25125885      -0.11739292    -610.04110190      -0.23630998      -0.10135112       0.61836030
H       16.04850769       5.48445988       8.13177013       0.11296833    -608.87259498       1.24293650       2.05599040       1.06185658
H        6.90969467      13.19510078       7.29479074       0.02498074    -609.25013776      -0.13415353      -0.20038263       0.29931110
H       12.27111626       5.40696096       8.61257458       0.08720917    -608.99127834      -1.60561325      -3.76226139      -0.26724695
H        7.67164135      13.50018215       8.93038654       0.03278638    -609.21835387       0.03487452      -0.48750856      -0.57124638
H        1.93753862       5.83320713       8.36726856       0.08006339    -608.92789135       2.64096232      -2.69086487      -0.34812223
H        7.85863590      11.87850952       8.07974911       0.03491608    -609.16942969       0.13929054       0.21411546       0.09239629
H        0.11538071       7.96139240       4.40195227       0.01738005    -609.26951524       0.13925147       0.36846897      -0.97513878
H        4.65558052       1.01749134       3.05339909       0.09817941    -608.84225131       0.01019833      -0.62739848       0.33728937
H       -0.06658390       8.21486950       2.54590178       0.03449436    -609.14354410      -0.16368368      -0.07626077      -0.22145861
H        6.39796591       0.93025750       2.50930929       0.10441042    -608.75646585       0.53572292      -0.30717548      -2.20676078
H       13.81443405       7.64330435       3.31619334       0.03536067    -609.22288857      -0.75740127       0.63376400      -0.32013488
H        5.64417458       2.43642449       3.07146358       0.10921464    -608.83138574       0.72295322       0.34123829       0.83740728
H        5.76891279      11.51636410      13.00697994       0.18756743    -608.86446200       0.17192668       0.22508775      -0.11375837
H        5.87000704      -0.59467423       9.79382896       0.00304434    -609.46586245       0.42325107      -0.69227031       0.90870084
H        1.42444980       7.62768555       8.56750298       0.04365529    -609.08355665       0.06368645       1.54084964       0.11783294
H        5.06405878       0.70481795       9.28581429       0.00148583    -609.48154007      -1.08719465       1.52456041       0.74385056
H       -0.41881752       7.42477560       8.46773243       0.07286507    -609.05672663       1.93910734      -0.42300579       0.17043250
H        4.94269085      -0.62659740       8.39159679       0.00688344    -609.40233805       0.82265666       0.28674683       0.36861839
H       12.20185852       5.76190948       2.44804811       0.00619007    -609.39798325       0.17237238       0.12691390       0.08618698
H        6.52119589      10.20538807       4.69305038       0.19557574    -608.84242659       0.48952269      -1.11240667       1.24393882
H       -0.76226515       6.05008459       3.95721960       0.00031947    -609.40940104       0.03242801      -0.63358452       0.40128088
H        7.76946020      12.94286156       5.14863729       0.09558872    -608.96093873      -1.95347920       1.91232719      -2.03896163
H       13.25012684       5.75343800       3.76627564       0.00494394    -609.39689466      -0.18784326      -0.72941399       0.40259045
H        7.18036270      11.81602669       4.47458172       0.08636354    -609.02485566      -1.49877893       0.94207504      -1.90240153
H        0.20307915       2.70337796      14.26816082       0.16883183    -608.94573372      -0.03664317       0.48089796       0.67106460
H        6.84812260       6.37937498       7.69562578       0.05785923    -609.13997291       0.76961191       0.20849100       0.86687603
H        8.39520836       6.36393881      14.61642742       0.05061751    -608.99779734       0.18382194      -0.03165325      -0.02059907
H        1.14744353      11.99915886      10.09096432       0.04649084    -609.38463059      -0.35132739      -0.05894066       0.42621236
H        0.92597717       0.97692060       9.20576096       0.05455511    -609.34845594      -1.39849691       0.39957832       0.72166583
H        7.39305782       5.44413853       9.08854008       0.06469770    -609.14486386       0.12816615      -0.00631007      -0.46994279
H        5.67270899       7.76975632       9.21764183       0.06127980    -608.97292226      -1.24380480       0.67993538      -0.17951511
H       10.73451710       0.66867030       9.01245213       0.06354805    -609.06479986       0.32140349       0.10315607       0.66206682
H       16.37570381       6.24096060      -4.09460688       0.08762277    -608.96311220      -0.94299603      -1.95333059      -0.58441908
H       11.17509460      13.69192123      10.66610146       0.04945223    -609.06543734      -0.23085398       0.46413034       0.06427820
H        6.18876028       6.39224815      10.42220592       0.05807819    -609.04366909      -1.38180346      -0.07489747       1.56350067
H       11.34922123      11.96831036      10.45349121       0.06314832    -608.99632715      -0.68359921      -0.95629383       0.49033597
H        7.83497953       6.19040251       1.56573749       0.04521785    -608.99124789       0.20336063       0.08614823       0.02200914
H       -0.89543664      -0.75450826       4.66873121       0.02845033    -609.25782907      -0.00436440      -0.31858628      -0.02367433
H        5.18989658       5.28440666       3.57649779       0.05929454    -609.08858896      -1.15417178      -0.65611693      -0.57073597
H        1.24624479      11.21227932       4.51535892       0.04010023    -609.13876675       0.36629073      -0.75105203       0.36316484
H        7.01951313       4.96008968       3.56215334       0.06301209    -609.09800613       0.14821107       0.19056661       0.17469447
H       -0.27641717      -1.55634940       3.11773491       0.04045387    -609.12007207       0.26524023       0.63695707       0.87384681
H       12.18734074      13.55952740       3.21938491       0.02905115    -609.28055107       1.04642538      -1.90418190      -0.32361031
H        7.28465939       7.14080381       3.92873812       0.03975871    -609.17338607      -0.16965234       0.83490364      -0.27715379
H       13.76452351      12.57026482       2.88225245       0.00601359    -609.36078330      -0.53697058       1.61665931      -0.32280372
H       11.55169201       7.38884163       6.80358744       0.23595262    -608.18720699      -0.21328065       0.73972266      -0.11625831
H        5.56412935       7.59455013       3.49340105       0.05102373    -609.16847034       0.13908238      -0.19046204       0.50656281
H       12.85051346       0.88895637       4.40618277       0.00891247    -609.36520414       0.60223455       0.74921181      -0.48216930
96
Lattice="12.299111366271973 0.0 0.0 0.397482693195343 12.292691230773926 0.0 0.0 0.0 12.580405235290527" Properties=species:S:1:pos:R:3:initial_charges:R:1:energies:R:1:forces:R:3 original_dataset_index=221 energy=-58453.00210421748 pbc="F F F"
Pb      10.11103153       9.84498978      12.15729618      -0.11594166    -607.09475600      -0.48398757      -0.50119647       0.05764453
Pb       2.40920019       2.74672031      12.25968266      -0.13306251    -607.37280038       0.74547732       0.69890462      -0.29185074
Pb       3.67434883       8.83655930      12.51689911      -0.12055130    -606.74098691      -0.05662943      -0.70461524      -1.08078873
Pb       8.54573345       3.57393193      12.88266754      -0.13223746    -607.38336751       0.06468843       0.45938651       0.31343677
Pb       9.54345703       8.71270561       6.14194202      -0.13397507    -607.29761771       0.97814196       0.17418055      -0.00944445
Pb       2.86407757       3.42461181       6.06532288      -0.13634449    -607.31400772      -0.08565752      -0.44094494       0.35143861
Pb       9.41539383       2.67783570       6.74467039      -0.14496356    -607.47314333       0.22710786      -0.20204302      -0.08295299
Pb       3.41183758       9.64274025       6.20857239      -0.10112616    -606.58181091      -0.97774422      -0.05103557       0.28118086
I       10.16192150       8.46750259       9.09764099       0.14652753    -608.52250637      -0.27206329       0.17111748       0.13617487
I        3.64853477       3.35245395       9.42503834       0.15064962    -608.61091652       0.04535959      -0.16743991      -0.08745752
I        9.27347374       2.61751819       3.54667282       0.13813159    -608.17806890      -0.00315248       0.07652460      -0.16910984
I        4.46483755       9.57056808       3.03373027       0.07345822    -608.06406486       1.04810537      -0.32289386       2.37647188
I        2.36248946       3.26376724       3.05362153       0.14021975    -608.60481823      -0.07206256       0.14253491      -0.22976425
I        9.67691803       9.24544144       2.70702195       0.14482704    -608.48514302       0.25324930       0.41354245       0.27106330
I        3.55197859       9.43659973       9.67597294       0.12959836    -608.56874848      -0.04163417      -0.15321131      -1.12482530
I        9.33028507       3.31322789       9.88109112       0.13517807    -608.62196103      -0.01796546      -0.24793170      -0.16846962
I       -0.57236332       2.14546180      13.02017593       0.10005169    -608.31786827      -0.49251695      -0.41805681      -0.01323501
I        6.74454832       8.57907677      12.55950546       0.15731327    -608.39475069      -0.11609639       0.02410366      -0.37227060
I       10.29965210       6.03074980      -0.06733021       0.15048534    -608.38465146      -0.24268169       0.54322492       0.21433162
I        4.05048943      12.15432453       0.02253467       0.13546014    -608.51444687       0.20155393      -0.11888567       0.21968743
I       12.59488487       9.77185345       5.93245411       0.13349451    -608.59939504       0.29353502      -0.07034090       0.37427798
I        6.60578108       3.60850835       6.33989334       0.14038494    -608.16002362      -1.33405997      -1.33422479      -1.24601534
I        3.01875353       6.39787197       5.83610106       0.13263159    -608.55062551       0.12616337       0.81183467      -0.03558727
I        8.59108067      -0.47705054       6.09940910       0.14289434    -608.57300614      -0.00054723       0.13710853      -0.28071908
I       13.00011826      10.17765713       0.26747990       0.12969710    -608.64896872      -0.15162115       0.08455809       0.07364344
I        5.55897808       3.62587166       0.37748009       0.14511891    -608.46325342      -0.20195738       0.33306453      -0.05431732
I        1.70255804       5.89994431      12.56903172       0.15360209    -608.49318651       0.71639375       0.07210638      -0.15342371
I        8.20846748       0.32926175      12.82184887       0.12225882    -608.49639119       0.20696591      -0.37324360      -0.55086381
I        0.09296276       2.01621461       6.38600254       0.13973817    -608.49169843       0.52566905      -0.12040366      -0.04420387
I        6.56780386       8.63822556       7.10466909       0.06539105    -607.94322710       0.21181206       0.23146773       0.57906567
I       10.45555973       5.59230518       5.87035084       0.13323310    -608.46677789      -0.40480183       0.25964879       0.66703775
I        4.25537729      12.73420334       6.15945005       0.12992795    -608.53224789      -0.01991151      -0.82450513       0.41740798
N        6.39493895       6.45714045       4.49683094      -0.09803829    -609.72154140      -1.98113697       4.11763319      -0.35345132
N       12.31999779      11.95186806       3.40191841      -0.13303198    -609.77786224      -0.77865069       0.49884056       0.45114547
N        0.91469657       6.91861248       8.70356178      -0.05577740    -609.66598808      -1.57619254      -1.15963543       1.44710830
N        5.34430361      -0.05500405       9.60052490      -0.13833837    -609.80544219       0.50696231       0.94444095       1.57491529
N        7.26713753       5.52935505       8.36882019      -0.08638723    -609.53435454      -1.04214090       1.69495189       3.22051584
N        0.64070433      -0.26090074       9.65361500      -0.06404562    -609.89407209      -0.16515968      -0.75078547       3.84237866
N       12.14565182       6.00936985       3.16587687      -0.14434494    -609.78870997      -0.65957642      -0.31877498       1.09434343
N        6.61705828      12.20746326       3.05171847      -0.13311127    -609.80535181       0.60000632       0.46643068       1.03719820
C        6.17843962       6.22809553       8.60865211      -0.03881520    -609.84903023      -1.45397796      -1.33002705      -1.41299118
C       11.99242496      12.48834324       9.69945812      -0.11190266    -609.88192427      -1.03912286      -0.50019749      -2.92610792
C        0.62345839       7.25826836       3.02277184      -0.11502498    -610.03649804      -0.07262023       0.51706161       0.42459651
C        5.55661964       1.26304030       3.23803401      -0.11778580    -610.00463488       2.97139081       0.33849167       0.61036423
C        7.14483309       5.89666033       3.60537124      -0.07616685    -609.61109959       1.01125338      -0.60492200       0.39752511
C        1.11138260      -0.23741752       3.37591124      -0.11744417    -610.05878240       0.42553202       0.25241674       0.11779837
C       12.78573132       5.50698996       9.06982231      -0.11722495    -609.80481417      -0.27152549       0.43032625      -0.71403859
C        7.04167080      12.52385235       8.88699627      -0.10513026    -610.07756534      -0.21724283      -0.65038794      -0.59425740
H       13.38306332       5.09701014       9.84174252       0.06478790    -609.04680238       0.99015811      -0.39150217       1.01761087
H        6.75361633      13.07194138       7.93393755       0.04035037    -609.22086160       0.53058716      -0.89069556       0.86910764
H       11.78171349       5.25854349       9.42745304       0.06668777    -609.14198089      -0.43016669       0.96478241      -0.34790793
H        7.69689274      13.16521454       9.48396111       0.04421639    -609.19728215      -0.23532018       0.03677235       0.20642388
H        0.66771019       4.90309381       8.20453167       0.05525570    -609.15258326      -0.02204848      -0.63553093      -0.80214240
H        7.56553364      11.51441193       8.74969006       0.04812496    -609.14399391      -0.72362616       1.38548877      -0.20427777
H        0.43774608       7.96072054       3.86103702       0.04197235    -609.24133169      -0.40759750      -0.35040353      -0.46163974
H        5.42362404       1.44380856       4.29164648       0.04328501    -609.15629729       0.10193092      -0.15145701       0.44859441
H        0.39090571       7.70897150       2.04139638       0.02960701    -609.22236819       0.21242076      -0.12671300       0.45694910
H        4.61545086       1.24083304       2.81408167       0.04015813    -609.19667412      -1.77294617       0.22150747      -1.39786329
H       13.95328617       6.97349882       3.12907434       0.03622055    -609.20036247       0.71803963      -0.05379960      -0.32060135
H        6.27609253       2.06084228       2.88404703       0.03574092    -609.18201818      -0.96300258      -0.92757200      -0.08347400
H        3.29351830       9.52387905      14.48740578       0.18858872    -608.97273445      -1.19775211       0.13139714      -0.68309379
H        5.45673609      -0.58165503      10.50625038       0.01001579    -609.41179254      -0.04996281       0.14789196      -0.84737624
H        1.91661108       6.76969862       8.80174541       0.05514410    -609.23109752       0.24490324       0.94910101       0.17843033
H        4.81243134       0.79740739       9.90761471       0.00992535    -609.44848174       0.52592324       0.07665015      -0.34848849
H        0.52224028       7.49595833       9.49069786       0.05536270    -609.22092645       1.07795166      -0.21934383      -0.83218404
H        4.67961454      -0.52487099       9.00087929       0.00028726    -609.46000636      -0.33596766      -0.71644786      -0.42571161
H       12.60542202       5.23842287       2.67216039      -0.00256450    -609.47717398       0.08460521      -0.15152026      -0.31288113
H        7.27249146      12.03925228       3.87206602       0.00856938    -609.45898952      -0.11182701       0.15314449      -0.97786331
H       -1.09981728       6.14785099       2.77220535       0.00347634    -609.50808528       0.03085779      -0.28549491      -0.13351436
H        7.11730671      12.17189217       2.12944198       0.00843275    -609.44930964       0.09320414      -0.06000199       0.51035303
H       11.96933842       5.66602755       4.19749498       0.00297236    -609.42773449       0.37969951       0.73302235      -1.44250957
H        5.95553827      11.41639709       3.08210182       0.00169768    -609.44377979      -0.18227727       0.27713542      -0.14300069
H       -1.90622830       1.25047529      12.35000324       0.17920190    -608.84013195       0.30221349       0.06335064       0.39205923
H        7.78061962       5.05009222       9.13845825       0.07575603    -609.05509391       0.11134461       0.49767112      -0.12086410
H        7.91093540       7.22164822      14.42913914       0.07942506    -608.87852557      -0.28977406      -0.14360576       0.67918807
H        1.48720670      11.63603878      10.50235271       0.04847885    -609.38133894      -1.03825497       0.45383106      -0.44940144
H        1.33863533      -0.27719221       8.99730206       0.07016648    -609.28790834       0.95804894       0.63644077      -2.77117263
H        7.47991657       5.13452435       7.46311140       0.02587147    -609.22160540       0.10337289       0.25030501      -0.85092773
H        5.65020323       6.35626364       9.58183002       0.09633073    -609.05376697       1.12920206       0.01165901      -0.22795755
H       11.27246571       0.51577979       8.61318493       0.07034133    -608.93837010       0.50887140      -0.79309909       1.62031003
H       17.52854347      -2.30859756       6.78725195       0.16599332    -608.91884985      -0.04089886       0.70402572      -0.19023733
H       11.79624557      13.44174671      10.22429276       0.06722642    -608.89625547      -0.00867828      -0.56909516       0.46834734
H        5.43411064       6.37335730       7.73698950       0.08642872    -608.91943876       1.20852283      -0.36130081       1.15928011
H       11.27885723      11.59228516       9.93505955       0.06750528    -608.98213465       0.62903348       1.47292828       0.10161002
H        7.95266533       7.20466518       2.65762997       0.04564490    -608.84958571      -0.35488033      -0.03976975      -1.45676970
H        1.58089209      -1.14916050       3.00347018       0.03565069    -609.20090571      -0.53608235      -0.26131047       0.09122951
H        6.90193129       4.98751020       3.04022861       0.05966058    -608.94355916      -0.14236471       0.57163993      -0.35468865
H        1.82130384      12.19026375       4.43870640       0.02743761    -609.25272344       0.00845464       0.35462570      -0.83642252
H        8.16514492       6.21024275       3.78453994       0.06846276    -608.94553331       0.66087427      -1.37901415      -0.14392705
H        1.46006572       0.56440216       2.65733004       0.04114601    -609.19121797      -0.60053564      -0.52294451       1.04845785
H       11.89813995      12.88672638       3.68471313       0.00559785    -609.41761759       0.31801797      -0.89746990      -0.46174032
H        6.95659399       7.29836798       4.87710857       0.05784953    -609.03481361      -1.46684168      -1.36485859      -0.02868468
H       11.94520283      11.23841476       4.11576700       0.00775704    -609.44321094       0.81586064       0.58621904      -0.45241732
H        8.99227810       4.93274260       2.67608666       0.28098014    -607.98092888       0.37013525      -0.57517028      -0.38876241
H        5.35119247       6.78764534       4.30057764       0.09189305    -608.82776060       1.86255109      -1.56763370       0.81142639
H       11.54040813      -0.65735847       2.49823499       0.00215775    -609.46978773       0.00708940       0.22796593      -0.11548138
96
Lattice="12.299111366271973 0.0 0.0 0.397482693195343 12.292691230773926 0.0 0.0 0.0 12.580405235290527" Properties=species:S:1:pos:R:3:initial_charges:R:1:energies:R:1:forces:R:3 original_dataset_index=484 energy=-58450.0409708333 pbc="F F F"
Pb       9.59250546       9.15069103      12.84255314      -0.14270312    -607.34155417       0.56961685      -0.16917575      -1.63031203
Pb       3.31827736       3.16391635      12.48161411      -0.13544314    -607.25060917      -0.25190641       0.26347132       0.97272971
Pb       3.44233108       9.00642586      12.58373547      -0.13525085    -607.32061947      -0.37649071      -1.22669119      -0.11899354
Pb       8.43603897       3.06178951      12.70881557      -0.10597754    -606.94574465       0.16241100       0.24314860      -0.18386652
Pb      10.42029953       9.06079388       6.12821198      -0.14324293    -607.32569552       0.79016063      -1.09113327       0.42804948
Pb       2.93613815       2.91538692       6.33533764      -0.13931993    -607.42937508       0.05970127       0.54718978      -0.29236633
Pb       9.14034843       2.82875586       6.39747429      -0.13608389    -607.50187989      -0.05448755       0.02978667      -0.18147344
Pb       3.28983045       9.28486252       6.24528122      -0.11893237    -607.10420691      -0.36396664      -0.57250513       0.49502194
I        9.12345982       8.87989330       9.01686478       0.16824335    -608.35503592       0.44534251       0.11719484       0.18979230
I        3.67232418       2.71391797       9.64342594       0.11680362    -608.55662120      -0.07542964       0.24290057      -0.69375995
I        9.70622063       2.95246577       3.17484641       0.13661279    -608.63529429      -0.09212052      -0.07846299      -0.24124188
I        3.72058225       8.91728973       3.05296254       0.13221943    -608.43970254       0.44103695       0.67922259      -0.05402839
I        2.04526496       3.22195148       3.24013901       0.12570970    -608.31915950       0.71022940       0.13705324       0.51526205
I        9.65484619       9.26625347       3.06572604       0.11694870    -608.45136311      -0.28363328       0.04996911       0.42737559
I        3.91438508       9.43707275       9.43025303       0.13019294    -608.45211600      -0.41069001       0.41740004      -0.17781546
I        8.88241386       3.51690149       9.48516464       0.13494453    -608.55553734       0.12675591      -0.12655990       0.34426606
I        0.21327759       1.90279007      12.84186172       0.10792088    -608.20765296      -0.36976007       0.70528170      -0.21679774
I        6.87442541       8.19606113      11.95617485       0.13276562    -608.29130401      -0.50451197       0.45111338       0.21105657
I       10.59800625       6.30993652      -0.66965353       0.16797912    -608.38066210       0.16623913       0.09507997       0.13895690
I        4.13870907      11.90888405       0.17462865       0.09017561    -608.31480436      -0.47693205       0.90566855       0.23977217
I       12.85278893      10.17268467       7.72313213       0.13762186    -608.42211380       0.58930409       0.05433288      -0.12264056
I        6.01725006       3.77221990       6.40798378       0.14488593    -608.38622526       0.18444974      -0.11547033      -0.00225029
I        3.09650469       6.11960030       5.42213631       0.15111709    -608.35756753      -0.26259749       0.04194866       0.67566650
I        9.37263012      -0.26780409       6.23390388       0.13236760    -608.40651647      -0.14836556       0.88291369      -0.29126727
I       12.86468983      10.19867420       0.19507208       0.14407682    -608.64985801       0.22771352      -0.18552685      -0.10933346
I        5.76123810       4.93189859       0.34627873       0.12884295    -608.38482560       0.61068395      -0.76197224      -0.36829243
I        2.13332105       5.88618183      13.10363674       0.14978483    -608.34123629      -0.13187024       0.27252860      -0.42485114
I        7.82343245       0.07266595      11.96758175       0.13349824    -608.68371091      -0.24827680       0.08161160       0.29858817
I        0.06100697       2.00362706       6.61414671       0.13522787    -608.46201781      -0.27331297       0.36384633       0.27617524
I        7.16847420       9.04257584       5.92897272       0.10249449    -608.24393448      -1.06899509       2.21617980      -1.01955492
I        9.18577194       6.04120731       5.78742361       0.12839441    -608.48193064       0.23156541      -0.25150183      -0.02979313
I        3.88662219      12.20714092       6.16322851       0.11689383    -608.52373600       0.26848002       0.19300546      -0.14944739
N        6.34404564       6.79677820       3.67027330      -0.08513419    -609.56577773      -1.70937401      -1.23665738      -0.73679244
N       12.99594402      12.79583359       3.39702678      -0.14903609    -609.71052297      -1.29298010       0.57624738      -0.51896685
N        0.70279366       7.12771320       8.87473392      -0.08528749    -609.59019056       4.11916335      -3.69757438      -0.78508782
N        5.64772844      -0.03852892       9.06265450      -0.13771367    -609.79327101       0.64496469       1.63050022       2.46096077
N        6.94601583       6.15648127       8.75637245      -0.07656903    -609.70334650      -0.28703666      -1.14218338       0.96046895
N        0.31430840       0.62066817      10.34523582      -0.06254536    -609.93778968       0.07591291       0.41030548      -0.53964019
N       12.28956985       6.24686289       3.51161766      -0.15964124    -609.66199218       0.31746706      -1.82450561       0.47069234
N        6.74605465      13.06428051       4.42831039      -0.10060453    -609.28387920       3.72770856      -2.38845541      -2.92384848
C        6.14188719       6.80256319       9.50503731      -0.07527247    -609.86214375      -3.34386703       1.75967809       0.31139102
C       11.59522343      12.82248402       9.97650814      -0.11413600    -609.92561194      -0.63991823      -0.37770652       0.42652864
C        0.52122217       7.61196518       3.42480564      -0.14343686    -609.71294319      -0.41661959      -0.26569513      -2.95331905
C        5.65972376       1.31824636       3.33824086      -0.16662733    -609.34221930      -5.44942169       6.97826672      -1.63998842
C        6.08692074       5.54345798       3.49649835      -0.05649284    -609.95643076       0.21785357      -0.51123200      -0.48142212
C       -0.00436479      -0.89480257       3.88272047      -0.11216739    -610.08490447      -0.15093324       0.93676507       0.52422568
C       13.22201443       5.85372019       8.49305058      -0.02536575    -609.80529304       0.58476879      -1.92715029      -1.06119579
C        7.21943378      12.62996578       8.22520256      -0.11420591    -610.06863754      -0.59217703      -0.30093148      -0.08243955
H       16.35482788       6.83413076       8.78801727       0.08341004    -608.81937751      -0.44644980      -1.73199059      -0.71189358
H        6.79889154      13.20681667       7.40386868       0.02603467    -609.24653321       0.36553794       0.20307585      -0.19843531
H       12.44428730       4.97880030       7.95161247       0.14451262    -608.85780491       1.06840868       3.13256483       1.81682615
H        7.95228815      13.16059780       8.80932522       0.03200525    -609.24450354       0.15727288       0.45276936       0.30530877
H        1.92916000       5.19578743       8.50418949       0.11728846    -608.96457698      -1.51592187       2.52519790       0.31133371
H        7.68362427      11.71445560       7.85762215       0.04247315    -609.14480567      -0.19876112      -0.11541369       0.03544433
H        0.22787203       8.18807888       4.26459789       0.01205150    -609.29642039      -0.31740157       0.38094032       0.79953716
H        4.54307365       1.15056860       3.37701702       0.07687489    -608.94481108       0.60216382      -0.06638134       0.00453354
H        0.01365146       7.98133469       2.52360082       0.03075211    -609.15363178       0.47666640       0.48167307       0.05392288
H        5.85049820       1.35174811       2.23277283       0.09379087    -608.90893367       0.96058798      -0.91607288       0.49626640
H       13.87981892       7.65334797       3.33981967       0.02534139    -609.10189485       0.64863540      -0.41339782      -0.27995427
H        5.70402479       2.42642379       3.63395596       0.07994328    -608.97975707      -0.43238094      -0.37171790      -1.11985078
H        5.77152920      11.77488232      12.65479183       0.18412003    -608.88214202       0.85553072       0.05239332      -0.10183036
H        5.96209764      -0.62528443       9.87149048       0.00232028    -609.42940043      -0.40148427      -0.00848257      -0.75117740
H        1.42056632       7.91536140       9.08568668       0.09258343    -608.97221031      -0.94855074      -1.66621439      -0.21425911
H        5.10237265       0.80324197       9.52896976       0.01769473    -609.38868162       1.03949155      -1.02955272      -1.01685639
H       -0.22931926       7.32689476       8.93698406       0.06980886    -609.07674067      -3.35072480       1.47263808       0.05522687
H        4.98456287      -0.45979393       8.45416927      -0.00001494    -609.45264375      -1.11865486      -1.13576253      -0.53019779
H       12.06799412       5.86722183       2.58858299       0.00325408    -609.32422840      -0.40345733       0.37154585      -0.52170921
H        7.21304464      10.57771015       4.83682680       0.21075583    -608.70480755      -0.07897648      -1.61315261       1.14843900
H       -0.87501770       6.19652653       4.10398388       0.00030046    -609.40548748       0.39371896      -0.01720096       0.07013392
H        7.38854885      12.80008221       3.54682350       0.05975865    -609.07786132       1.00378455      -0.78903408       3.36978956
H       12.98385239       5.49260283       3.79837418       0.00559708    -609.32276224      -0.42914725       0.94507552       0.50779727
H        6.16021585      12.26965618       4.40055084       0.05562445    -609.14097175      -0.26716727      -2.57085880       1.57236700
H        0.22901790       2.87259579      14.29698086       0.16726834    -608.93977532      -0.08374692      -0.45201049      -0.60232318
H        7.28558826       6.56730318       7.89867353       0.06517821    -609.19424036       0.61930750       0.04294501      -0.30698191
H        9.01829529       5.98565626      14.16022301       0.05274418    -609.00174293      -0.28046891      -0.00532416       0.16205665
H        1.13008142      12.03563309      10.64128399       0.04823517    -609.35963068      -0.09582623      -0.18686573      -0.31349287
H        0.80306697       0.98873532       9.51756191       0.03936673    -609.48842161       0.26971836      -0.17478780       0.57001027
H        7.21214867       5.16656351       8.99044895       0.07245225    -609.09798681       0.18673829       0.65393680      -0.36057024
H        5.60031986       7.75221014       9.19375896       0.08091370    -608.99530184       1.98086434      -0.43342106      -0.17904975
H       11.05213642       0.59010869       8.90867233       0.06510179    -609.05670929       0.13881427      -0.08100829      -0.74274293
H       16.39394379       6.04949999      -4.05855417       0.07168078    -609.05297379      -0.39067127       1.41589586       0.35975599
H       11.06623745      13.75443363      10.32607174       0.05727815    -609.04753922       0.05671283      -1.13908996       0.30351560
H        5.36213827       6.47064638      10.24201107       0.08316895    -608.95315482       1.80131376      -1.14522682      -0.06004198
H       11.14471054      11.81540203      10.23942566       0.06624358    -609.03659006       0.19255819       1.28640173       0.26781517
H        8.29101658       6.09191036       1.40217257       0.04313268    -609.02269075      -0.02382688      -0.04031379       0.28268935
H       -0.94604099      -0.74910867       4.44283962       0.03569654    -609.19755529       0.56271085      -0.57910282       0.39226209
H        5.19671202       5.22108889       2.88332343       0.06854045    -609.14887007       0.64289526       0.44075043       1.25525549
H        1.21747148      10.89126968       4.42170668       0.03945597    -609.17956250      -0.38327255       0.66029550      -0.11123552
H        6.81346607       4.80220222       3.83351493       0.06473761    -609.11953869       0.02486076       0.03334475      -0.23065712
H       -0.24628419      -1.43637478       3.00031447       0.04102311    -609.12622614      -0.06099027      -0.75653041      -0.75898102
H       12.20903587      13.41701126       3.64880013       0.01053401    -609.41129706      -0.20379095       0.03286203       0.92815186
H        7.21256495       7.10715675       4.12212706       0.06949788    -609.13082395      -0.19391575       0.16566878       0.05067899
H       12.74020481      12.87225342       2.37487960       0.01312209    -609.42284799       1.46141464      -0.39889545       0.25269023
H       12.04082775       7.79866457       5.41977930       0.21877718    -608.29286579      -1.00646348       0.27231754       1.71055210
H        5.47343922       7.35023642       3.43720222       0.04931674    -609.22206070       1.27822807       0.81602161       0.25310133
H       13.41452599       1.13784921       3.68307304       0.01731944    -609.31940223      -0.15174088      -1.03202596      -0.55941484
96
Lattice="12.299111366271973 0.0 0.0 0.397482693195343 12.292691230773926 0.0 0.0 0.0 12.580405235290527" Properties=species:S:1:pos:R:3:initial_charges:R:1:energies:R:1:forces:R:3 original_dataset_index=104 energy=-58459.461426876835 pbc="F F F"
Pb       9.76324272       9.56465054      12.31260967      -0.13796157    -607.45454211       0.61068476       0.01546968       0.09694767
Pb       2.45121431       2.66006684      12.22827530      -0.11340284    -607.05637006       0.89353073       0.35827493      -0.04404620
Pb       3.88874745       8.54277325      12.65739346      -0.14517778    -607.09858911      -0.11771689       0.49274403      -0.52788927
Pb       8.83573151       3.52319884      12.98868561      -0.13488254    -607.39461284      -0.19804184      -0.11402616      -0.31501685
Pb       9.50909996       8.78485012       6.20097589      -0.13298310    -607.41010132       0.06347972       0.82890019       0.14139165
Pb       2.88089371       3.18664837       6.05896616      -0.14277963    -607.53075953       0.09201438      -0.28493221       0.24220120
Pb       9.45607185       2.62413406       6.36426163      -0.13038065    -607.14741355      -0.22235900      -0.31465887       1.53891849
Pb       3.32639146       9.54390049       6.28479910      -0.13709499    -607.44963954       0.30315177       0.54519879       0.10056223
I       10.42777443       8.42029953       9.29484081       0.14699534    -608.47821311      -0.00189956       0.33380850      -0.21173637
I        3.59408689       2.90486884       8.99057102       0.14622256    -608.38581516      -0.05224151      -0.13621694       1.43900138
I        9.22125149       2.89902282       3.60492706       0.11537503    -608.48748275      -0.06975861       0.18913839      -1.77166283
I        4.53463984       9.08425617       3.11060214       0.14222570    -608.55554491      -0.79972813       0.60975526       0.98056724
I        2.46119094       3.68812943       3.09061551       0.14868253    -608.48222350      -0.06794532      -0.18182824      -0.48898978
I        9.71775913       9.45422649       3.00777030       0.14683966    -608.65958832       0.04406301       0.00424524      -0.04218080
I        3.06076837       9.86931515       9.78290844       0.13274424    -608.17513084      -0.43089590      -0.74310676      -1.14555174
I        9.59327412       2.98586583       9.68272781       0.14596674    -608.47955183      -0.63431839       0.55207642       0.09019926
I       -0.43655807       2.29468036      12.62900639       0.12425093    -608.42537648      -0.11196049      -0.15075310       0.66353321
I        6.92107201       8.55270004      12.33229637       0.12802784    -608.40620655      -0.68542477      -0.28814480       0.01531391
I        9.79705048       6.26396847      -0.37129092       0.14162171    -608.36410511       0.45987055       0.07758123       0.47516134
I        4.01420879      11.90611362       0.24487548       0.13782379    -608.46242038      -0.23791589       0.62223894       0.01580444
I       12.55183220      10.18954563       6.03464174       0.13982207    -608.47774809      -0.29020574      -0.68531581      -0.26293110
I        6.21617985       4.17052221       6.45890379       0.15431084    -608.54842856       0.31203945      -0.20218073      -0.70762666
I        2.72444820       6.69861174       5.96257639       0.13873531    -608.56699276       0.01902903      -0.79707730       0.32467447
I        7.74096346       0.08396534       6.40348482       0.15513115    -608.36861933       1.15192530      -0.16180774       0.01100419
I       12.71507072      10.33484840      -0.34937999       0.15347335    -608.44009396       0.00698991      -0.21298753       0.74069648
I        5.67800856       3.66197491       0.07153271       0.15012126    -608.55362450       0.38462414       0.24036902       0.21487480
I        2.38889003       6.06005955      12.79302692       0.14546272    -608.31923881      -0.46516211      -0.72608373       0.12520729
I        8.44671822       0.40564218      12.73368931       0.13424058    -608.47219398       0.09747879      -0.40531792      -0.41295702
I        0.38649026       1.23816919       6.72162724       0.13896507    -608.50630226      -0.02214152       1.18779281      -0.03044031
I        6.38239145       8.49968815       6.87297678       0.14302291    -608.52639899       0.20186858      -0.03844812      -0.23844932
I       10.58929920       6.01489687       6.02149391       0.13022667    -608.47140573      -0.21692762      -0.60831292       0.29772115
I        4.81192064      12.73066139       6.41581821       0.14352350    -608.23299468      -0.84674228      -0.22702802      -0.24542267
N        6.03848457       5.70840311       3.23823094      -0.13945673    -609.75112539       1.18556457       1.05668772      -0.31321547
N       12.28912163      12.82316208       3.06143618      -0.13716345    -609.74207877      -1.93245101      -0.35604129      -0.50804667
N        1.72223210       5.56187344       9.82729816      -0.07093122    -609.63043489      -0.28621190       1.28893367      -0.85524585
N        5.25178099      -0.26737654       9.78581333      -0.14711393    -609.74275901      -0.27664710       4.14624559      -1.18648137
N        8.25485516       5.92304945       8.41061020      -0.15662083    -609.65490852      -3.65075160      -2.96266323      -2.28609337
N       -0.80853683       0.36360765       9.86926556      -0.15875953    -609.58052025       3.91290693       1.01841878      -2.37875646
N       12.59707737       6.80140734       3.72197533      -0.14009181    -609.70444576      -0.82922187       1.36286678       1.14446079
N        6.66835260      11.45478344       2.29441166      -0.14084594    -609.73681622       0.41422079       3.63102566      -2.47782229
C        7.12189770       5.76849461       9.32489014      -0.12046494    -609.94207606       0.39641525       1.63308351      -0.08705613
C       10.98018074      12.08018494       8.92909908      -0.12565869    -609.96236065      -0.15212342       0.21613449      -0.92484085
C        1.14334714       7.92639589       3.09953976      -0.11491522    -610.04414304       0.41558140      -2.40618482      -2.07197848
C        5.65994692       0.31935936       3.02254558      -0.10970295    -610.02122484      -1.06782098      -0.54803907       0.72187206
C        6.88731003       6.96297503       3.01850057      -0.12863533    -609.97514749      -1.69572359       0.19279150      -2.24410616
C        1.00676072       0.18526220       3.29494214      -0.11076083    -610.08955454       0.32716078      -1.32839218      -2.41204716
C       12.79361248       4.81052923      10.05115891      -0.11778200    -609.90076854      -0.07300854       2.20896591       1.54236345
C        6.34187651      10.77819252       9.69194126      -0.12469183    -610.02365870       0.05921657      -2.26315443       1.26761150
H       12.07660389       5.56120682      10.41054821       0.06494651    -609.01348271      -0.33252412      -0.11978782      -0.12607998
H        5.74577904       9.92152596       9.31886578       0.04341099    -609.13427070      -0.03861372       0.82589512       0.25144787
H       12.35678864       4.37671709       9.19188881       0.06102497    -609.03730134      -0.24058211      -1.07347391      -0.79557145
H        7.19195843      10.78481007       9.09907818       0.05356906    -609.13951226       1.61742007       0.77560374      -1.70283495
H        0.58104712       4.21275473      10.96414375       0.03482622    -609.15415370      -0.00146805      -0.77064747      -0.45535365
H        6.79173517      10.44359970      10.65342999       0.04614763    -609.19197265      -0.84237964       0.53631953      -0.12202031
H        0.68583846       7.95833921       2.05908275       0.05229813    -609.18131457       0.87296736       0.66497637       1.07283961
H        4.69224787      -0.16994245       3.32135224       0.05202497    -609.15282528       0.55349519       1.03506818       0.41125632
H        2.25370407       7.66035318       3.03426170       0.04055018    -609.18892961      -1.61358629       0.06233900       0.12244434
H        5.42426252       1.06387496       2.25442910       0.04468158    -609.19186085       0.16634106       0.16462409       0.19853961
H       13.34665394       8.81552505       3.66264892       0.04703075    -609.19320417      -0.40266824       0.92767582       0.55151635
H        6.26585388       0.74528641       3.90751815       0.04701282    -609.20862057      -0.71464385      -0.97396353      -1.41249400
H        4.20487022       7.91098118      10.67307186       0.26182041    -608.17146621      -0.27677456       0.48468054       0.16559419
H        4.21987820      -0.30320942       9.70073605       0.00916556    -609.33301968      -0.04884579      -0.84245590       0.72888824
H        2.11424565       5.28800869       8.93617058       0.04504165    -609.28509495       0.43847150      -0.04017462      -0.21923146
H        5.45801497       0.27900338      10.70982075       0.01925324    -609.29282686      -0.36917994      -0.84925125      -1.90725466
H        1.49762547       6.57921696       9.72935200       0.04910798    -609.26990957       0.38114085      -0.86429207       0.20115019
H        5.30247259       0.41230375       8.82873821       0.04645160    -609.16654544       0.67748950      -1.46464870       2.17399521
H       12.14344215       7.17638779       4.66919136       0.01922800    -609.32643144       0.35255661      -0.42655684      -2.09197274
H        6.98951960      10.76861668       2.87895560       0.01343919    -609.41834255       0.44425828      -2.84964138       1.97513832
H        0.83944768       6.01512289       4.20583439       0.02436807    -609.27241625      -0.39068842       0.41664932      -1.55995438
H        7.56970072      11.84198475       1.88662088      -0.00076147    -609.48354066      -0.64695723      -0.42935497      -0.40389699
H       11.80637264       6.60488796       2.99727273       0.03129622    -609.28220741       1.51490441      -0.37219508       1.87521634
H        6.00334263      11.16401863       1.47838509       0.01486778    -609.41560485       1.03975628       0.21858356       1.33243294
H       -1.16405594       1.20462596      10.24941063       0.00869999    -609.39554560      -0.96256080       1.39166022       1.55917606
H        8.63334656       6.78126001       8.51435375      -0.00040592    -609.43501850       2.05588961       3.95201702       0.27773995
H        8.95273018       5.21276951       8.45272255       0.00302852    -609.40288846       1.05378168      -1.04925482       0.64726533
H        0.12398863      12.07662201      10.45496368       0.01125122    -609.39304801       0.08462304      -1.81287280       2.24326069
H        0.03739196       0.74269038       9.35694027       0.02318464    -609.35560269      -0.66715198       0.16333326      -0.45770649
H        7.77917862       5.77784014       7.45143986      -0.00308356    -609.42240293       0.80337615       0.36022357       0.68626443
H        6.40346575       6.54109716       9.01214504       0.02907891    -609.20089673      -0.05911484      -0.27617488       0.42032841
H       10.34801674       0.79069197       8.34281349       0.05462547    -609.01126433      -0.83661133      -2.47357928       0.79814568
H        7.49448586       5.88183832      10.30750847       0.02813816    -609.23715812       0.09938410       0.31795515       1.29144129
H       10.27077675      11.59501076       9.67346382       0.04623846    -609.11577854      -0.22068614       0.39558992      -1.94046660
H        6.76098633       4.81414270       9.17579460       0.03169225    -609.16555587      -1.12269171      -2.03915442      -0.10318868
H       11.56948566      11.40120983       8.21582603       0.04799336    -609.10206347      -1.17637225       0.46007442       1.06234916
H        6.37346745       7.56272411       2.19294333       0.03847551    -609.16827785       0.98243772      -0.85788480       0.97525510
H        1.21931839       0.44973487       4.28394699       0.03568317    -609.21392936       0.59958142       0.07997644       1.57182281
H        7.87979174       6.77437878       2.73713946       0.05047994    -609.21806472       1.44148712      -0.85246627      -0.59013517
H        2.05845737      13.03361988       2.60174346       0.03177924    -609.23643154      -0.36326968      -0.12776406       0.14969488
H        6.90609074       7.58052921       3.87120271       0.04206040    -609.19306707      -0.17996770       0.46122910       1.41319450
H        1.11146355      -0.92345941       3.05074239       0.04730597    -609.16403835      -0.02211955       1.29541653       0.56230535
H       11.94577026      12.40224171       2.13434887       0.01072026    -609.42393705       0.37832495       0.71865576       1.12184806
H        6.68027925       5.12854481       3.90000653       0.02241255    -609.28496427      -1.74509088       0.01032934      -1.03874039
H       11.99951553      13.84065437       3.08272719       0.01273086    -609.38000167       0.71210407      -0.65767223      -0.30148816
H        5.77771330       5.29886007       2.20197177       0.03898288    -609.18247499       0.36110052       0.25230035       2.66841581
H        5.24432325       6.13584566       3.80547690       0.01038557    -609.37754143       0.29060899      -1.30596947      -0.79757420
H       11.29340935       0.12530537       3.82244611       0.00690164    -609.45380907       0.43657568      -0.11198447      -0.48250017
96
Lattice="12.299111366271973 0.0 0.0 0.397482693195343 12.292691230773926 0.0 0.0 0.0 12.580405235290527" Properties=species:S:1:pos:R:3:initial_charges:R:1:energies:R:1:forces:R:3 original_dataset_index=494 energy=-58452.01267952727 pbc="F F F"
Pb       9.62332439       9.10424519      12.82606316      -0.15028968    -607.42139948       0.50551233       0.03329983      -1.19005212
Pb       3.41885424       3.22933650      12.53180504      -0.13270506    -607.14898303      -0.63956372      -0.30381539       0.88096262
Pb       3.41033697       8.96187782      12.54540253      -0.13674919    -607.31406865      -0.11603886      -0.95306585      -0.01878076
Pb       8.43468761       3.05645013      12.69057941      -0.10370803    -606.91714562       0.20246848       0.09714975      -0.19463967
Pb      10.44199181       9.04478073       6.16991377      -0.13113539    -607.22130654       1.12480240      -0.69920806       0.11817651
Pb       2.94105530       2.90283227       6.32952642      -0.14481625    -607.52411144      -0.05465789       0.40064891      -0.35967270
Pb       9.14410210       2.85835934       6.38002348      -0.13323125    -607.41687897       0.09766684       0.28383785      -0.14068849
Pb       3.30145478       9.28741837       6.25844717      -0.11945399    -607.14137544      -0.55527232      -0.59539961       0.38746550
I        9.13409615       8.92018032       8.94872379       0.15849493    -608.46244700       0.32019628      -0.00373519       0.65603060
I        3.62337589       2.62003541       9.66325665       0.12330546    -608.58843382      -0.15607945       0.21483390      -0.45815084
I        9.76377392       2.96390557       3.13329983       0.13268609    -608.60503365      -0.11843714      -0.25722385      -0.16833312
I        3.68021226       8.97354507       3.05133176       0.13695410    -608.47337879       0.46118198       0.46147532      -0.09095996
I        2.01158571       3.28299642       3.29615617       0.13665795    -608.37922546       0.46695387      -0.19980693       0.25322218
I        9.60758209       9.26145172       3.08404112       0.12564938    -608.44766017      -0.06667080      -0.01336227       0.15345188
I        3.87771297       9.50927830       9.43601418       0.13854624    -608.37689975       0.20128486       0.25237467       0.01991739
I        8.90699387       3.51225305       9.46858406       0.13662055    -608.52108132       0.17058275      -0.31072447       0.36379060
I        0.19826362       1.88535047      12.81757641       0.09282517    -608.06874560      -0.74302144       0.72277036      -0.14406142
I        6.89824677       8.16099167      12.01145935       0.13276082    -608.19046686      -0.43843786       0.60544160       0.93427697
I       10.58779716       6.36858654      -0.71375686       0.16203178    -608.42817998       0.15517998      -0.18891958       0.13065887
I        4.09604073      11.86800289       0.19428216       0.09874844    -608.36875078       1.12944632       1.36214345      -0.23350645
I       12.86829281      10.15893745       7.78236246       0.13995136    -608.37071246       0.54465666       0.07812713      -0.00503399
I        5.98040056       3.82925987       6.38364935       0.13767406    -608.49991454       0.33182794      -0.27582500       0.03819033
I        2.99722672       6.08238697       5.38561249       0.14936328    -608.31297380      -0.06704450       0.11492138       0.79842183
I        9.39158630      -0.19894356       6.26510859       0.11812828    -608.38560291      -0.25153711       0.26596233      -0.49752484
I       12.84892750      10.20626259       0.21146241       0.14369887    -608.66682506       0.21097458      -0.37892896      -0.06651067
I        5.78880548       4.92734623       0.34707737       0.11790640    -608.40244399       0.98731550      -0.42171388      -0.00142640
I        2.19689059       5.88851547      13.18509388       0.14255653    -608.34195939      -0.19824120       0.25682379      -0.70692352
I        7.79674196       0.02908452      11.96728039       0.13077579    -608.62961735      -0.46769780       0.33585678       0.25806301
I        0.04394859       2.01951265       6.56977558       0.13838547    -608.51037497      -0.40791617       0.32751688       0.25175491
I        7.15368032       9.05749607       5.88578892       0.11708276    -608.36234537      -0.71093652       1.79450760      -0.62519233
I        9.16526699       6.03132772       5.73858213       0.13442740    -608.49414424       0.34340303      -0.25221157       0.09535249
I        3.92664289      12.16749096       6.10659790       0.12591723    -608.53301709       0.19637163       0.30895852       0.00379923
N        6.38947010       6.61823511       3.59067035      -0.07333272    -609.69136993      -1.49606771      -0.96870705      -1.37494245
N       12.90440750      12.73073196       3.26854062      -0.15698566    -609.73081439      -0.38845381       0.98919308      -2.15507474
N        0.74746490       7.06790590       9.28617382      -0.08374594    -609.58172123       2.33267485      -3.00262202      -0.84636169
N        5.67993355      -0.04086115       9.19579506      -0.14033370    -609.81039428       1.26840441       1.91205726       1.50136343
N        7.06890774       6.03787041       8.79896450      -0.07369653    -609.62263540      -2.19283367      -1.98405841       1.58091624
N        0.18713784       0.54261523      10.68617535      -0.06199995    -609.90448952       0.05877005       0.42414176      -2.27965306
N       12.09300995       6.30687952       3.65455532      -0.14780602    -609.69147017       1.29531075      -0.03281907       0.55370051
N        6.71744633      12.92840481       4.29197216      -0.06748050    -609.75088430       0.96045166       3.04031921      -1.30447902
C        6.17665386       6.70199585       9.46001339      -0.04912666    -609.87813649       0.12987811       1.49894051       2.12828540
C       11.63892937      12.69150066       9.87404442      -0.11701046    -609.95431574      -0.88334372       0.55734562       2.64006686
C        0.70029294       7.51321363       3.24899411      -0.12995204    -609.94470311      -1.33979221      -0.61818784      -1.10833660
C        5.34635353       1.68736255       3.36149955      -0.12194111    -609.84113961      -1.05305179      -5.81242674       1.02745776
C        5.98762894       5.36162281       3.39551044      -0.04426138    -609.88112630       0.03568438       2.23159465       0.89618785
C        0.05713443      -0.92718768       3.74538302      -0.12014011    -610.05580895       2.03481049      -0.24723428       1.93704352
C       13.24559498       6.01540375       8.50712395      -0.04122593    -609.79960262      -2.01934349       1.73224310       1.36684215
C        7.18809366      12.44549656       8.19214058      -0.11990190    -610.08225472      -0.82832351      -0.01631179      -0.16904531
H       16.22408485       6.54605436       8.79851627       0.03592880    -608.96285194       1.04755173      -0.61485880       0.34259873
H        6.87474298      13.23086929       7.48299074       0.03298054    -609.26441150       0.12154532      -0.30812156       0.23028471
H       12.56942272       5.36757135       7.98603201       0.09485674    -609.05637609      -1.58524693       0.87469842      -0.61123902
H        8.07094097      12.73131466       8.73341560       0.03178681    -609.22991957       0.38677729       0.34027508       0.38158955
H        1.81537890       5.52051783       8.45943260       0.07679236    -609.03195117       3.70986134      -1.21610961       0.62427182
H        7.42749882      11.50616550       7.68177891       0.02770391    -609.17504081      -0.48633071       0.07132700       0.14912815
H        0.73095131       8.17148304       4.11382389       0.04055834    -609.20972952      -0.25868967       0.03670216       0.34488452
H        4.33151102       1.31167543       3.77974653       0.07864493    -609.01768478       1.38651946       1.16116086      -0.42657413
H        0.40095848       8.06156445       2.32214522       0.04761165    -609.12330592      -0.39880189      -0.67498188       0.68158754
H        5.24161768       1.37588501       2.28999615       0.07859612    -608.97244386       0.86481890       0.37163485       0.65191142
H       13.97319221       7.11877918       3.08620691       0.02700278    -609.11005485       0.62961611      -0.46607077      -0.05191221
H        5.56676865       2.66731524       3.58586907       0.08327288    -608.95557874       0.39598387       2.18545441       0.22672069
H        5.78609228      12.34822464      12.22069073       0.19174662    -608.77854260      -0.40733580      -0.54153533       0.47503667
H        6.02920580      -0.63601160       9.97176647       0.00119360    -609.45025859      -0.28313181      -0.08357769      -0.36881348
H        1.45735872       7.32986736      10.01571369       0.06192773    -609.10350732      -0.81577390       0.09825331      -1.14478923
H        5.41162729       0.91278261       9.68841839       0.01609145    -609.38207244       0.35178812      -1.58728507      -1.13468672
H       -0.07396947       7.57193947       9.13508892       0.06018492    -609.05704777      -1.93904155       1.38476368       0.43811956
H        4.82990265      -0.41365108       8.80747223       0.00010085    -609.47064775      -0.76083955      -0.55060573      -0.46489694
H       11.65000820       5.70893335       2.95440197       0.02149175    -609.31520242      -0.22128893       0.56321762      -0.77029485
H        7.73019171      10.75428009       5.34865904       0.20141131    -608.71476899      -0.53030614      -1.25996811       0.58142029
H       -0.92221254       6.56452274       4.36815739      -0.00173974    -609.44078553       0.10030026       0.06852034      -0.17682179
H        7.76466990      13.18341064       4.09743309       0.06099514    -609.23246144      -1.93076183      -0.58557413      -0.22927917
H       12.71640778       5.58421612       4.11712646       0.00613698    -609.41755889      -0.24481143       0.89531685      -0.07660327
H        6.63899231      13.49814129       5.16827869       0.05821026    -609.27568649      -0.23006700      -0.77603438      -0.29357535
H        0.08311300       2.92252326      14.14898014       0.16763473    -608.92018929       0.13046666       0.09139592       0.01082488
H        7.99272203       6.46233273       8.68432331       0.07087564    -609.08352404       0.28668624       0.21733483      -0.69463392
H        9.19414997       5.56591129      14.15247345       0.05097762    -608.99114188      -0.06848762       0.15591220       0.10901318
H        0.90217131      11.87450981      10.78661823       0.03875277    -609.37637145       0.82762632       0.10749375       0.02245908
H        0.87909436       1.15897727      10.20162487       0.04424858    -609.35184665      -0.36492782      -0.96027954       0.21516919
H        6.93868923       4.96797609       8.86703968       0.06852076    -609.02057284       0.92398741       1.61241495      -0.60419589
H        6.35184145       7.76198721       9.75808525       0.05762465    -609.09437637       0.01350235      -0.45274349      -1.39236180
H       11.27035236       0.28211942       8.81900883       0.05756473    -609.09916030       0.67267521      -0.11600016      -0.98508389
H       15.57742691       6.76815844      -3.97885132       0.04351486    -608.88927941      -1.03838007       0.24842889      -0.46454358
H       10.94528961      13.52814293      10.09986019       0.06009316    -609.09211758       0.37869084      -0.16043441      -0.10335307
H        5.39043760       6.34104824      10.20232773       0.09022916    -608.99576473       0.61229849      -0.64262749      -1.69491758
H       11.17947102      11.81060314      10.33567905       0.06244791    -609.03641325      -0.36420404      -0.13149885      -0.39427078
H        8.69740677       5.95852518       1.97764492       0.04403497    -609.06398429      -0.10397935       0.01092598       0.13127145
H       -0.67521769      -1.16535366       4.49981642       0.02579946    -609.24152157      -0.54674189       0.63462696       0.14596261
H        4.91525793       5.07922649       3.25524020       0.07222752    -609.04372726       0.91032301       0.44228708      -0.27916985
H        1.48065126      11.26835251       4.20144081       0.04703795    -609.13542416      -0.89447246      -0.54630409       0.20671803
H        6.75628996       4.65777206       3.63508511       0.07179154    -609.07980430       0.20267038      -0.80546286       0.11366649
H        0.05744714      -1.63938618       2.97491455       0.03815092    -609.16491797      -0.39610506      -0.67869690      -1.40270993
H       12.98209381      13.42064476       4.00581837       0.00119288    -609.40963389       0.77084607       0.22481657       1.26477585
H        7.28477907       6.82740164       4.05130768       0.06379662    -609.19783485       0.19608906      -0.16211494      -0.37261639
H       12.16011429      13.29580116       2.70866203       0.02689019    -609.21502179       0.74116980      -1.71759995       0.21413637
H       12.50362015       8.13364220       5.62251139       0.21990487    -608.24224111      -0.84992912       0.04281842       0.47280958
H        5.83222437       7.42241669       3.20316029       0.06476353    -609.14330310       0.17602171      -0.60612143       0.85587800
H       13.43044758       0.37414604       2.73680234       0.00775098    -609.33383441      -1.49120918       1.03865210       0.41105772
96
Lattice="12.299111366271973 0.0 0.0 0.397482693195343 12.292691230773926 0.0 0.0 0.0 12.580405235290527" Properties=species:S:1:pos:R:3:initial_charges:R:1:energies:R:1:forces:R:3 original_dataset_index=370 energy=-58454.224714047334 pbc="F F F"
Pb       9.73825455       9.35301208      12.39252377      -0.13490787    -607.44442136      -0.14368057      -0.18427672       0.15984474
Pb       2.73029780       3.13713765      12.28689194      -0.13493626    -607.40897903       0.29103868      -0.57410318       0.12987648
Pb       3.46820450       8.73101139      12.56905174      -0.12403385    -607.23100239       0.06031814       0.30752411       0.48475974
Pb       8.68955898       3.61159039      12.77237034      -0.13862777    -607.20054477      -0.72686360      -0.55778936      -0.10939312
Pb      10.12143135       8.85325813       6.18318081      -0.13243511    -606.98703865       0.36202610      -0.59565036       0.63665363
Pb       2.92088556       3.28041172       6.36391354      -0.13842900    -607.37915827       0.35129807      -0.82230101      -0.33943215
Pb       9.30386066       2.69705820       6.56383276      -0.15177700    -607.52455241      -0.44662321       0.25599418       0.01936050
Pb       3.23337555       9.29985619       6.27124834      -0.12604316    -607.24578442      -0.02831494       0.36454109      -0.15449544
I        9.63159466       8.63014317       9.32254314       0.13200097    -608.33419201      -0.27481846       0.03479280       0.42889022
I        3.80489945       3.39678478       9.38635349       0.12276346    -608.48954930      -0.16957374      -0.23474014      -0.09970161
I        9.41354370       2.73508024       3.30111861       0.12818979    -608.58881832       0.20958435      -0.00565374       0.02989296
I        4.34876776       9.25656128       3.10949969       0.14847447    -608.53524978      -0.33350989      -0.21294717      -0.04281677
I        2.95108414       2.74196792       3.02098632       0.14203447    -608.53658823      -0.33007395       0.46052275       0.00966195
I        9.47917843       9.55322742       3.01204848       0.14392057    -608.60239045       0.02828022      -0.03020142      -0.45390249
I        3.68273377       9.01666546       9.41484070       0.10555909    -608.36011238       1.52675919       0.65079284       0.11793647
I        8.99882984       3.43711948       9.73510361       0.14199711    -608.54575712      -0.15401723       0.06885123      -0.29030396
I       -0.71142131       1.99301898      12.80349255       0.10151961    -608.33971220       0.89415957      -0.10763142      -0.35085690
I        6.56623793       9.04985046      12.16182995       0.14549725    -608.40855880       0.12186543      -0.30439228      -0.06026898
I       10.15589523       6.10090828       0.00434683       0.12351281    -608.52323426       0.45979263       0.65229875       0.02401244
I        4.63343048      12.53546715      -0.10259510       0.13223538    -608.54622890       0.00424431      -0.08745224       0.08769002
I       12.73418427       9.99940777       7.25018358       0.10851785    -608.15141602       0.76344857       1.33277272      -0.93498504
I        6.12423563       3.03849363       6.08239126       0.13973054    -608.41501299      -0.10276745       0.65029904       0.34373129
I        3.40047073       6.19061327       5.78121185       0.12840928    -608.46708153       0.05818813       0.38667560       0.02633645
I        9.13222885      -0.31275097       6.17293072       0.13472657    -608.41562618       0.01585447       0.35056700      -0.15431548
I       12.86111832      10.05167961       0.01060382       0.13687691    -608.64595029       0.06880513       0.04746186       0.29914249
I        5.68115282       4.16852283       0.44883680       0.14045399    -608.53862185      -0.11193687       0.28769241      -0.11159364
I        1.92489660       6.08475828      12.01010609       0.12679961    -608.51230652      -0.04977073       0.18728272       0.16219850
I        8.18674374       0.18168370      12.09916306       0.10850584    -608.43633526      -0.08508024       0.09406278       0.14599353
I       -0.02965206       2.34479284       6.83538294       0.13218632    -608.49962843       0.37926874      -0.26750726      -0.13014281
I        6.69198847       9.40065289       6.62247896       0.10137630    -608.42562807      -0.39118033      -0.97341731       0.35602576
I        9.75975990       5.78127098       6.07743359       0.13105105    -608.42302446      -0.17945051      -0.28563940       0.01095478
I        3.98920679      12.37194157       6.39659262       0.14221191    -608.51061106      -0.31492171      -0.16046836       0.12436079
N        6.50601768       6.20918179       4.00173807      -0.08443627    -609.63354527      -1.78677519      -0.55295171      -0.82374140
N       12.15998077      11.69483566       3.46486783      -0.14065169    -609.78308757      -1.59299785       1.83148794       0.38379215
N        0.97698689       5.49910164       8.15279388      -0.09473242    -609.65383020      -1.12464974      -0.71568460       1.81383567
N        5.43794060      -0.31169602       9.26676273      -0.13968593    -609.81767039      -0.27932765       0.37755771       0.59075968
N        6.49571419       6.76174784       9.05446720      -0.07469453    -609.65144444      -0.15142216      -1.46805421       0.19263079
N        0.73632485       0.38196066      10.12270641      -0.05943034    -609.80102558       1.01991814      -0.95126703      -0.21648572
N       12.50152588       4.82708549       2.54995298      -0.15225273    -609.83970854       0.77881140       0.70312183       1.30910248
N        6.78295040      11.87116909       3.15527678      -0.07165015    -609.71613443      -3.66852938      -2.00270989      -1.28282004
C        5.89648676       5.74937725       9.61308956      -0.03965933    -609.85084566      -0.02344116       0.45743280       1.67018462
C       11.98705864      12.51726055       9.95814133      -0.11649933    -609.92906062      -0.05916968       2.35917777       0.91899432
C        0.51715833       6.08890915       3.37661338      -0.11230230    -610.06898826      -0.13260621      -0.68850124      -0.73271040
C        5.94271421       0.91508090       3.50466180      -0.11883001    -609.91171301      -0.67506503      -0.46369187       0.39470520
C        6.15989685       5.00236368       3.67099237      -0.05708627    -609.94420256      -1.21168178      -0.52593324      -0.00701020
C        0.85946900      -0.03776730       3.45252514      -0.11206918    -610.06922523       0.15542082      -1.71250783      -1.06656339
C       12.23962975       5.29239750       8.95511723      -0.03164205    -609.78484592      -0.35331210      -0.73201956      -0.15838753
C        7.09385109      12.43505955       8.62407875      -0.11540657    -610.03198793      -0.14017860       0.97437100       0.50316345
H       13.30543518       7.92053318       8.76515484       0.13431433    -608.71834929       2.52646813       0.82298584       1.80135862
H        6.96126366      12.43508530       7.55527401       0.02596552    -609.22532053      -0.28667709      -0.06158769      -0.47330257
H       11.23140907       4.91143322       8.58434391       0.07013594    -609.09755442       1.23748825       1.07227185      -0.06821788
H        7.34207249      13.48198891       8.91571140       0.03634673    -609.22613213      -0.17895656      -0.70688292       0.11650643
H        0.02085578       5.24077368      10.07004070       0.07475624    -609.19182336       0.49010903       0.24548475      -1.01562832
H        7.87986898      11.74558926       8.86242485       0.03381686    -609.20967149       0.57062890      -0.23255095       0.34045102
H        0.87403083       5.80966377       4.37383842       0.03165118    -609.21967960       0.23042113      -0.11134492      -0.38601572
H        5.11982775       0.80781168       4.26401186       0.06453230    -609.01282061       0.45420194      -0.05812424      -0.65762366
H       -0.43857381       6.54173946       3.48794985       0.04332571    -609.17005586      -0.87025573       0.73069597       0.20175472
H        5.54135180       1.70460689       2.80669284       0.07771830    -608.91827601       0.72656145      -0.86251312      -0.18620211
H       13.48094654       6.77751350       2.83106494       0.04389161    -609.17580162       0.04456164      -0.51389641       0.12372461
H        6.75429058       1.28709710       4.10893440       0.06037813    -608.94154044       0.39344825       0.54080727      -0.02194695
H        6.87941551      12.45612717      12.51454735       0.15304941    -608.89431129      -0.22751773       0.03974805      -0.10591989
H        5.23807335      -0.03348301      10.25855446       0.01140875    -609.42185945       0.14904752       0.79043265      -0.22917880
H        1.95878363       5.42827511       8.46821690       0.05052286    -609.10584068      -0.39652962       0.53596161       0.16571068
H        4.61996841      -0.07278635       8.67486763       0.00457789    -609.46370207      -0.11543375       0.13171248      -0.05457782
H        0.81877100       5.51881409       7.16130638       0.03933900    -609.17395861      -0.14044537       0.15483481      -0.55181510
H        5.38560581      -1.30809247       9.41231537       0.00548893    -609.43961021       0.14867287      -1.18841576      -0.49514961
H       12.13871193       5.09576845       1.61915433      -0.00343851    -609.43199492       0.08819429      -0.02958000       0.01506426
H        7.08570004      10.63414955       5.67611265       0.18754002    -608.84469107       0.19552743       0.70850739      -0.77692929
H       -0.52234757       4.29793167       3.06969500      -0.00083516    -609.45662030      -0.11592492       0.00285288      -0.25337675
H        6.43574095      11.30555630       2.29093790       0.07165798    -609.10827051      -1.88382382       1.28158386       1.73873744
H       13.36113644       4.20616817       2.52096653      -0.00286389    -609.40742575      -0.24615448       0.17885635      -0.21391547
H        7.60011864      11.66448116       2.72424173       0.07040086    -609.15130452       5.11481720       0.97760628      -0.26084846
H       -1.21821988       3.07419801      13.93759823       0.17342888    -608.93782669      -0.00424240      -0.12621410       0.34804269
H        6.19805574       7.70003557       9.29967117       0.06136770    -609.12033083      -0.15210822       0.47936689      -0.09272834
H        9.17201328       6.16920376      15.67910194       0.05368881    -609.04447555       0.03334899      -0.32409640      -0.12817583
H        1.50981379      11.74458218      10.35431194       0.04404422    -609.34476067      -0.11975318       0.17553150       0.60037866
H        1.29757583       0.52111602       9.25935555       0.05537961    -609.32793397      -1.04137433       0.54255157       0.11898909
H        7.35873508       6.61945963       8.52874660       0.06558110    -609.11083462       0.10908134       0.14404356      -0.04281001
H        5.07876348       5.94748163      10.34946060       0.07137907    -609.13123712       0.48475978       0.07534888      -0.79898831
H       11.22726631      -0.55378640       9.35341072       0.06711020    -609.00061887      -0.39236760      -1.33164138      -0.99043271
H       14.10256290       8.26880836      -3.42011905       0.10043875    -609.01193929      -3.70572561      -1.96250616      -1.33804129
H       11.54824066      13.46830845       9.60209179       0.05481497    -609.09152857       0.26187746      -0.26781488      -0.21773168
H        6.31807756       4.73877096       9.67267704       0.07128901    -609.12511103       0.12124148       0.36383920      -0.67112708
H       11.50980663      12.44332886      10.95811176       0.05661071    -609.03101052       0.32548285      -0.46154196      -0.25885959
H        9.61474609       6.76716089       3.13607621       0.06312698    -608.99182511      -0.11327777       0.19161903      -0.07799568
H        1.34301710      -0.80734551       4.04886532       0.04428528    -609.20264488       0.79576222       0.10509215      -0.00658486
H        5.09471035       4.78436184       3.56510019       0.06381340    -609.17837759       0.02065261       0.10373688      -0.12080733
H        1.36283362      13.17711735       3.94465709       0.03839623    -609.22848256      -0.25323137       1.26670375       0.59028513
H        6.80323362       4.14471531       3.42596698       0.06327089    -609.20089511       0.40038292       0.75415045       0.35538217
H        1.32571054      -0.03182629       2.43588400       0.04234600    -609.22087862      -0.64823435       0.07037255       0.61795378
H       12.02732754      11.37974358       4.47983646       0.00987191    -609.36377993      -0.40714274      -0.20050010      -1.51143554
H        7.47976112       6.32018471       4.12666941       0.05605539    -609.10893511       1.43914648       1.14284917       0.32413278
H       12.11012173      10.98430347       2.71418500       0.00670747    -609.36326887      -0.23676200      -0.49875332       0.57911424
H       11.45261478       7.90106535       7.56760502       0.24813426    -608.37850095      -0.63359357      -0.51627646      -0.56827928
H        5.76931238       6.98910952       4.00215721       0.07037789    -609.02706549       1.27382672      -0.86485085       0.24328718
H       10.89028263       0.06463823       3.26507282       0.02934150    -609.30177326       2.02647836      -0.92824481       0.43920919
96
Lattice="12.299111366271973 0.0 0.0 0.397482693195343 12.292691230773926 0.0 0.0 0.0 12.580405235290527" Properties=species:S:1:pos:R:3:initial_charges:R:1:energies:R:1:forces:R:3 original_dataset_index=252 energy=-58451.4643763961 pbc="F F F"
Pb      10.04041004       9.66431904      12.04030323      -0.12670258    -607.30535094      -0.53479183       0.10982303       0.82860324
Pb       2.38583255       2.87145162      12.24970055      -0.11682112    -607.25338106       1.08417121       0.08202982      -0.01487242
Pb       3.60303569       8.76216412      12.53374767      -0.13793503    -607.02689274       0.31426471      -0.34203235      -0.20892838
Pb       8.59244919       3.66164088      12.66543293      -0.13166597    -607.06034705      -0.13616932      -0.38751481       1.41352334
Pb       9.69591904       8.69019222       6.24503469      -0.13286941    -607.34232520      -0.04681553       0.06875550      -0.67996538
Pb       2.89861274       3.52719688       6.15877151      -0.14726298    -607.41280187      -0.05701637      -1.44484697       0.32620929
Pb       9.33688736       2.73962283       6.70905352      -0.14586779    -607.38328753       0.33096677      -0.06888951       0.33941955
Pb       3.42793322       9.42230797       5.99459410      -0.12721305    -607.08432033      -0.44297458       0.56999615       1.23959638
I       10.00153542       8.57775402       9.17733192       0.12333103    -608.55050933       0.08492578      -0.08864491       0.23429224
I        3.67676044       3.34154129       9.24147224       0.14016509    -608.60003285       0.01281772       0.06349273       0.63240913
I        9.42508316       2.45763564       3.82745337       0.13814248    -608.41289594       0.10888694       0.32039789      -1.46939429
I        4.30929852       9.64938068       3.22944260       0.10026450    -608.27729199      -0.11015803       0.28105239      -1.22657635
I        2.55674219       3.20308089       3.12944126       0.13993792    -608.54632279       0.18558822      -0.25779921      -0.61350907
I        9.68569660       9.36418343       2.75754642       0.14703232    -608.41556464      -0.47897239       0.05780050       0.13658435
I        3.60155749       9.28743458       9.78239918       0.13833402    -608.62561144      -0.04839316      -0.06487099      -1.07690685
I        9.25507641       3.32354617       9.98292637       0.13399948    -608.50654507       0.16831811      -0.17004462      -1.23491402
I       -0.57513857       2.04068756      13.05486584       0.09561209    -608.32184871      -0.12557136      -0.08852696      -0.50480588
I        6.76907063       8.68836308      12.49303913       0.15920685    -608.36201981      -0.42449691       0.38388959      -0.42619845
I       10.25139999       6.19217348       0.05154948       0.14240402    -608.36112800       0.24487346       0.32093171      -0.12451766
I        4.22354507      12.24321842       0.01444486       0.14760067    -608.57018005      -0.44320500       0.15374032       0.14388991
I       12.56144714       9.80463600       6.08868408       0.12377317    -608.51670213       0.66894715       0.21540610       0.72106132
I        6.40419579       3.18242764       6.04223919       0.13814159    -608.45371719      -0.19932022       0.91381269       0.26370311
I        3.16202903       6.40201044       5.85615683       0.11968248    -608.54564890      -0.08575451       0.88095681      -0.03679205
I        8.80293274      -0.49030742       6.01281595       0.13949797    -608.26292594      -0.59829377      -0.29466174      -0.15413698
I       13.00415897      10.15915298       0.32044882       0.13279454    -608.46083422      -0.15376656      -0.11345610      -0.02530511
I        5.60389566       3.74169588       0.48462048       0.14004658    -608.48756496      -0.49674034       0.37527081      -0.36799801
I        1.55942941       6.07508898      12.41175747       0.13239220    -608.49504855       1.00794812       0.02607685      -0.37367661
I        8.08868694       0.17682251      12.76421833       0.15391979    -608.40731617       0.69619353       0.06150979      -0.80894072
I        0.16508067       2.05117249       6.33155346       0.14536233    -608.48674678      -0.00287230      -0.00091594       0.33343093
I        6.51897240       8.92441845       7.02742577       0.12814665    -608.47492331      -0.12709586      -0.04268194      -0.48175285
I       10.32157135       5.61569500       5.94898558       0.13708989    -608.60282595      -0.07186582       0.20473613      -0.18944989
I        4.27696133      12.75208664       6.24806929       0.15669958    -608.39127070      -0.39414946      -0.80835749      -0.01212373
N        6.29478645       6.47499275       4.32087517      -0.08578114    -609.66521104       0.40258164      -1.29822678       0.94835485
N       12.00925541      12.17473888       3.55253434      -0.13925640    -609.79078257      -1.28382128      -1.37784039       0.74829068
N        1.27707505       6.71075630       8.99106503      -0.05784303    -609.74249421       0.86164691      -1.15861028       1.37599436
N        5.18439007       0.07335465       9.53070068      -0.13556908    -609.77305370       0.72502649       2.94276868       0.50574710
N        7.18473721       6.08261061       9.01390743      -0.08456659    -609.50414746      -1.26503794       0.30561623      -0.35999005
N        0.66857404      -0.23661101       9.74511242      -0.06858590    -609.75238974       0.24145127      -1.22441202      -2.32967748
N       12.64218903       5.52976513       2.71050453      -0.15798554    -609.86118804      -1.89876891      -0.05967325      -1.02827527
N        6.60706186      12.34221077       2.66802359      -0.06029785    -609.65977407      -1.65624671      -0.23391449      -0.66905861
C        6.17807579       5.82919931       9.77233601      -0.04206019    -609.73794871       0.57858322       0.76559506      -1.16421295
C       11.93571758      12.44992638       9.55466175      -0.11787616    -609.96163022       1.42734453       1.36450787       1.90534270
C        0.53899401       6.96177244       2.98505735      -0.16334029    -609.77289941      -0.09297055      -0.89040509       1.10404367
C        5.89393711       1.31519568       3.24439812      -0.11901690    -609.94189212       0.51122609      -0.12964061       1.15494605
C        6.67962790       5.23912621       3.89721894      -0.04567004    -609.75914159      -7.65837895       4.10350883       3.52685784
C        0.77071714      -0.20835537       3.27285862      -0.11696975    -610.11243971      -0.23501128       0.65283497      -1.12987649
C       12.58454323       5.62635660       8.99369526      -0.10985058    -609.92238821      -0.31900465      -0.13759314      -1.73705475
C        6.81387949      12.55922413       8.69624424      -0.11179470    -610.05327403      -0.58897890      -0.72010264      -0.28781694
H       12.43258572       5.16998577      10.01276588       0.06997776    -608.99674219      -0.47087523       0.54622783      -0.76589992
H        6.64601278      13.30972290       7.91950035       0.03210827    -609.23296476      -0.19352350      -0.10330094       0.09910927
H       11.69775009       6.07287407       8.43119717       0.06330467    -609.00254544       0.40782838      -1.03394231       1.23009562
H        7.61011505      12.86847401       9.33377075       0.03853956    -609.22181799       0.67544332       0.25735760       0.68131106
H        0.64136565       4.77921820       8.32122612       0.06515562    -609.08844972      -0.25140879       0.62716232       0.60207317
H        7.05193901      11.59308910       8.23371410       0.03406734    -609.22947809       0.03017035       0.20480083       0.07014771
H        0.15056501       7.02883863       4.02805853       0.04706513    -608.90641020       0.15851691      -0.24432713      -1.00607317
H        6.71286726       1.34912133       3.98831248       0.05699068    -608.95232404      -0.86406462       0.76816889       0.24609085
H        0.09333498       7.72770166       2.29673362       0.05237759    -608.86651667       0.16822257      -2.01305315      -0.15535323
H        4.85105848       1.35393310       3.69683075       0.05833481    -609.03733277       1.11359030      -0.29525392      -0.27392091
H       13.92686749       7.04943132       3.03480077       0.03578245    -609.05762933       0.12718231       0.55411358       0.06238174
H        5.96083736       2.24353242       2.62603474       0.07136570    -608.92088361       0.18124809      -0.61253512      -0.11449831
H        3.08152366       9.63658333      14.36710262       0.20770437    -608.73202744       0.33802304       0.05057604       1.04435603
H        5.35057926      -0.33643392      10.45143223       0.00504187    -609.45170790       0.09220562      -0.31638223       0.31200479
H        1.63787925       6.68393755       9.95956516       0.05354946    -609.31273238       0.50163960       0.21713080      -0.66872551
H        4.70700979       1.02369940       9.72510338       0.01455032    -609.42749522       0.70798360      -0.89414619      -0.17910560
H        0.83827031       7.60379124       8.97621155       0.05373731    -609.30843000      -0.73412039       0.90458861      -0.29736006
H        4.46426821      -0.41252014       9.06460094       0.01066919    -609.46059550      -1.18615240      -1.32088727      -1.01177582
H       13.25563145       5.35052395       1.90266728      -0.00774304    -609.45649148       0.16070853      -0.97204839      -0.19163232
H        7.61951971      10.11322689       4.87520170       0.26618072    -607.98385951       0.46274784       0.50530083       0.33799095
H       -0.63237458       5.26716471       2.45268726       0.01682673    -609.34417780       0.36041163       0.52117613      -0.22934373
H        7.56170368      12.06032467       2.60717893       0.04090491    -609.29059497       0.77711148       0.01029403       0.25906920
H       12.80764294       5.00517559       3.55003285       0.00286790    -609.44264284       0.82577529      -0.74656449       0.54039784
H        6.13848972      12.15744019       1.78319478       0.04434778    -609.24559405      -0.11982848      -0.26879082       0.01438294
H       -0.69362932       2.04294181      11.37122536       0.19859536    -608.82515494      -0.08550150      -0.05271126       0.57493791
H        7.12073708       6.66016960       8.18405914       0.06426132    -609.21720095      -0.46024887       0.64713807      -0.19861465
H        7.33758640       6.12877750      13.83210373       0.04392203    -608.95217489       0.13936417       0.06013343       0.11838010
H        1.17942703      11.01797295       9.58006001       0.06442127    -609.22714812      -0.58618783       0.54029382       1.23648580
H        0.96992749      -0.08829457       8.74111462       0.06087936    -609.25871443       0.43562261       0.87781569       1.04214705
H        8.09730244       5.86246252       9.21541309       0.07496655    -609.13640635       2.92639947      -1.48791067       0.76743765
H        5.40745163       6.49290848       9.39659977       0.08085789    -609.04300809      -1.48132283      -0.68285500       0.85193728
H       11.22673225      -0.17133269       8.61986732       0.07090673    -608.95711887      -1.26793020      -0.50635351      -1.74562210
H       24.30577469      -3.91619062       4.04669714       0.10605027    -608.83089070      -0.57441851       3.32838869      -1.64782244
H       11.95137310      13.56676865       9.58765793       0.05370552    -609.11533821      -0.14860626      -0.34973224      -0.39579257
H        6.29355955       5.09086990      10.57559681       0.06425060    -609.13138914      -0.54381997       0.47516907       0.17481005
H       11.25835800      12.20163536      10.36832047       0.04950373    -609.15700327      -0.12198482      -0.64480493       0.21116723
H        7.89010715       6.60132790       1.01422763       0.05788626    -608.89647221      -0.43216978      -0.49216964       0.46442452
H        0.97744316      -1.23254132       3.57353044       0.03458627    -609.17271952       0.66305907      -0.11372087      -0.06572115
H        5.73349047       4.70999241       3.75658822       0.08196369    -608.89758178       0.48074229      -0.56147265      -0.16843983
H        1.71986628      12.84308243       3.85424614       0.03249436    -609.23544027      -0.21674505      -0.37644559      -0.06687546
H        7.43034458       4.92758226       3.38892698       0.11657148    -608.84133419       5.60545617      -1.47608061      -2.70475388
H        0.95240468      -0.07293067       2.16722894       0.03094362    -609.18378348      -0.06193723      -0.13900831       1.14676252
H       11.46185780      13.08203983       3.51651073       0.00652121    -609.40705986       0.65070273      -0.14353486      -0.07701702
H        6.78487778       7.31514740       4.71048641       0.08351430    -609.02714790       0.52893999      -1.06866091      -0.81617873
H       11.89203930      11.82177067       4.55981255       0.00862195    -609.48780568      -0.07906314       0.43811419      -1.04489894
H       12.18421841       8.79351807       3.29727769       0.11081906    -608.80962026       0.37339951       0.55293769       2.83571779
H        5.36161470       6.42039680       4.82619810       0.06429894    -609.19290691       0.57528424       0.21002875      -0.84163394
H       11.04125309      -0.83701771       2.98399591       0.01019382    -609.46926593       0.73301202       0.79892833       0.59786833
96
Lattice="12.299111366271973 0.0 0.0 0.397482693195343 12.292691230773926 0.0 0.0 0.0 12.580405235290527" Properties=species:S:1:pos:R:3:initial_charges:R:1:energies:R:1:forces:R:3 original_dataset_index=126 energy=-58458.615454517196 pbc="F F F"
Pb       9.80854511       9.79181767      12.32030392      -0.14105284    -607.43336814       0.62173791      -0.67189791      -0.14893439
Pb       2.42985749       2.68698764      12.25480270      -0.11823320    -607.20028402       0.84143602       0.21252396      -0.31806867
Pb       3.82900190       8.54588318      12.62097263      -0.13412510    -607.33305005       0.24379123       0.69531902      -0.26946002
Pb       8.70251751       3.48466063      13.01236439      -0.12593585    -607.29327730      -0.18259707       0.29912912       0.10451631
Pb       9.42132950       8.77369022       6.14391994      -0.12924768    -607.42545766       0.34198051       0.15063152       0.38690176
Pb       2.82251525       3.15973687       5.99790955      -0.13837637    -607.44067283       0.27173209       0.20055536       0.72821854
Pb       9.48714828       2.57399869       6.56734896      -0.12506799    -607.17922705      -0.01108841       0.30051371      -0.83098765
Pb       3.27933502       9.68215656       6.39741325      -0.14462315    -607.45232050       0.54229187      -0.04544903       0.29009709
I       10.39347744       8.38127899       9.26121426       0.14805028    -608.46498573       0.01983291       0.23843534      -0.32327195
I        3.65918732       2.97321248       9.07315540       0.15483953    -608.37331837      -0.29717588       0.16850715       0.94042559
I        9.15450382       2.91907310       3.52065992       0.13821311    -608.48698506       0.08959680      -0.09737334      -0.41001649
I        4.52873230       9.20817566       3.05950761       0.13839982    -608.57375244       0.28426022      -0.14601665       0.33008976
I        2.40131426       3.62004066       3.09588695       0.13571620    -608.56011588      -0.12569811      -0.14123916      -0.53738967
I        9.68393803       9.36162663       2.87556243       0.14352547    -608.63900871       0.19890381       0.05201828       0.21798520
I        3.21929216       9.83701420       9.54298782       0.14379704    -608.53857974      -0.33152903      -0.40760557      -0.50795068
I        9.58484840       3.06031251       9.57666492       0.09764100    -608.40663901       0.54833426      -0.97888522       1.16419431
I       -0.54721004       2.30368996      12.71068954       0.11724497    -608.32631544      -0.21560972      -0.06123415      -0.37816077
I        6.94076252       8.51503754      12.38019276       0.13741817    -608.50349559      -0.73252045       0.01347209      -0.09155459
I        9.91765976       6.23618746      -0.36259058       0.14951830    -608.36063816       0.20596705      -0.33805526       0.51110980
I        3.93454361      11.84086132       0.25834841       0.14186077    -608.40470421       0.02685552       0.67270433      -0.34987184
I       12.66341496      10.12045288       5.98890066       0.12374399    -608.46263043      -0.76553940      -0.25072305       0.07068839
I        6.27287817       4.11928844       6.44666481       0.15174258    -608.51930121       0.42951364      -0.39033929       0.24785796
I        2.75385094       6.79826975       5.88356256       0.14655069    -608.51407001       0.09827734      -0.82541396       0.38340495
I        7.88786554      -0.03504581       6.30742788       0.12857161    -608.34008049       0.84588249      -0.46696596       0.32464576
I       12.85639954      10.35413647      -0.19242541       0.15280272    -608.46285041      -0.28111885      -0.66069135       0.66527319
I        5.53679514       3.61955404       0.04574423       0.14889346    -608.49827269       0.55789045       0.09710922       0.31743291
I        2.35953879       5.99128008      12.79364872       0.13962716    -608.36146015      -0.23377975      -0.54306479       0.02307064
I        8.49218845       0.32058442      12.73828506       0.12094919    -608.47200224      -0.26539048       0.22702754      -0.26393251
I        0.40962476       1.34772456       6.64473772       0.13360319    -608.59126934      -0.56018006       0.73750780       0.13575853
I        6.55253983       8.49695778       6.98079586       0.14361003    -608.58623214      -0.17816619      -0.07430767      -0.25108416
I       10.60217953       5.91021681       6.01132250       0.14087325    -608.70782680      -0.00942371      -0.14712256      -0.03131389
I        4.59175014      12.67508888       6.41312647       0.12684107    -608.32551517      -0.07359208      -0.14825779      -0.50888062
N        6.20699406       5.71725178       3.57123780      -0.13458012    -609.75999949      -1.38190938      -0.03489116      -2.61712090
N       12.44707584      12.46773624       3.53938603      -0.13945293    -609.77956128      -0.21091561      -1.67954232       2.16621510
N        1.61829567       5.81424379       9.63741398      -0.05393662    -609.71257699      -2.45896991       2.45857082       3.00747677
N        5.10297585      -0.01013560       9.64632702      -0.13676395    -609.77723767      -1.46160081      -1.37629050      -3.78531273
N        8.10323334       5.97154856       8.78756332      -0.14124781    -609.64274915      -1.37103639      -4.10077194       0.71141181
N       -0.35135826       0.06504905       9.89847851      -0.07158342    -609.78480323      -1.69288186       2.39783634      -1.52349865
N       12.79005814       6.95575857       3.40148067      -0.14620522    -609.70948566       1.19113239      -2.14089392       1.76367251
N        6.79923534      11.59792423       2.59990764      -0.14104632    -609.73770573      -0.15469194      -2.30471067      -0.02403779
C        6.96606064       5.84486294       9.78400326      -0.11619559    -609.96993202       1.75718276       0.18565478      -1.28224883
C       11.09973526      11.90031052       9.36818695      -0.12005994    -609.89337132      -1.95559516      -0.77642226      -2.65025894
C        1.45947218       7.93627024       2.90169120      -0.12883529    -609.97319217       1.07569735       1.81391984       0.15045875
C        5.47766495       0.40781584       2.93340087      -0.11191031    -610.00887417       1.26797830       0.02285142       3.97227688
C        7.36700726       6.39218664       2.91089678      -0.11914780    -610.05012900      -0.87058207      -0.02655635      -0.78295193
C        1.14271832      -0.18553197       3.12782526      -0.11706980    -610.05931146      -0.20905303      -0.62121379      -2.08425248
C       12.69430161       4.84408474       9.93602276      -0.11813949    -609.89069542       2.56032734       1.33315128      -2.39530129
C        6.48193932      11.21865273       9.78632164      -0.11483697    -610.02193582      -1.32942193      -2.56300020       1.82135936
H       12.09404755       5.12485313      10.80851650       0.05736821    -609.08271446       0.82299090      -0.23051368       0.29509248
H        6.27861547      10.35750771       9.09760761       0.03997250    -609.20359816      -0.28528655       0.56942325       0.81843142
H       11.97873306       4.77972841       9.11183167       0.07751872    -608.95240410      -0.15667601       0.56289452      -0.38070626
H        7.46145010      11.47651863       9.55814075       0.05659525    -609.17186899       1.79584052       1.35649835      -0.61482388
H        0.94785833       3.89765763       9.80941868       0.05538876    -609.02005806      -0.58542707      -0.38190620       1.03511777
H        6.51836109      10.89268875      10.89678097       0.04278020    -609.18501348      -0.29034226       0.21400976      -1.66410220
H        1.29067039       8.16682816       1.79473031       0.03429503    -609.18911491      -0.14848450      -0.39860890       1.41010054
H        4.40818024       0.24312793       2.71748948       0.04796759    -609.16020555       0.64607495      -0.41016483       0.31382330
H        2.49489021       7.56789589       3.03765178       0.02981403    -609.11000822      -0.74402518       0.15236019       0.02045413
H        5.80534029       1.27664602       2.44333053       0.04808864    -609.18936336       0.37142419       1.41333785      -0.73970422
H       13.62827778       8.87758732       3.48621893       0.04176144    -609.15000904       0.13811951      -0.51706184      -0.43750299
H        5.77212095       0.47271785       4.08441496       0.06003825    -609.10397044      -1.47794042       0.83015691      -2.05883889
H       10.32990646      11.21756363       6.99196482       0.27423504    -608.17057210      -0.43655322       0.09797069      -0.14790899
H        4.15437603      -0.22227392      10.01206303       0.01180456    -609.39460617       0.50187714      -0.37765893       0.45423775
H        2.03240395       5.89246607       8.72101021       0.06525553    -609.25212656      -0.50143614      -0.32764914      -0.59878932
H        5.43599701       0.80033034      10.06153393       0.00717073    -609.42973879       0.54194658       2.44679319       0.80733686
H        1.45656133       6.85858393      10.05659485       0.07797490    -609.10088998       0.24628793      -3.18660691      -1.50875809
H        4.78510809       0.16045107       8.49966431       0.02997277    -609.27735510       1.10078805       0.07951466       2.37863405
H       12.42887974       6.83218861       4.43621063       0.03694849    -609.22811583       0.37044781       1.35406368      -1.43465664
H        7.20101833      11.11779785       3.51381469       0.02557626    -609.29557554      -0.85748949       0.85695739      -2.31910441
H        0.94935131       6.01113272       3.34415960       0.00965001    -609.38221653      -0.44128513       0.24178009      -0.72757809
H        7.61484528      11.84937763       1.93659329       0.00907773    -609.43664607      -0.97720185      -0.18159588       0.71756198
H       12.08819389       7.08064938       2.73385334       0.00837917    -609.41772838      -2.44253532      -0.65114080      -0.86975842
H        6.12333679      10.90857601       2.11487889       0.01223372    -609.39751434       1.48086686       0.13178020       0.49522777
H       -1.28621352       2.31523371      10.61229324       0.18954910    -608.65353888      -0.39696309       0.27842000       0.20528179
H        8.62002754       6.78299856       8.86244965       0.00109641    -609.52780393       1.55803702       2.97718208       0.08311463
H        8.76520252       5.18743086       8.97060013      -0.00189338    -609.40967388      -0.01565208       0.66705714       0.20439314
H        0.63973320      11.82731056      10.44467354       0.06287339    -609.21552667       0.50803988      -2.24215664       1.87468864
H        0.31764865       0.53069180       9.30301189       0.05328196    -609.26763709      -0.57913288       0.51968052      -1.02745425
H        7.78520536       5.74053764       7.86094284       0.00116101    -609.49187867      -0.54081403       0.35013072      -1.15935590
H        6.17230749       6.39838791       9.36271954       0.03751793    -609.16756363      -1.24761197       0.47524513      -0.25862110
H       10.10664082       0.25778827       8.52243900       0.08747628    -608.93292712       1.62790005      -0.37248474       2.18080934
H        7.38715887       6.33088732      10.63001537       0.02937131    -609.19419487      -0.17947948       0.09676228       1.26066807
H       10.23180962      11.56373596      10.08752346       0.06119479    -609.05063008       1.85766338       0.71618644      -0.81795742
H        6.77251959       4.79613829       9.88511753       0.03433501    -609.15982458      -0.41974180      -0.50524344       0.31761050
H       11.16937447      11.02086258       8.55317020       0.09523763    -608.82971621       0.15636742       0.62655335       1.24482374
H        7.01400805       6.98002720       2.02585483       0.03780567    -609.23019622       0.37886370      -0.51619253       0.61742850
H        1.78885043      -0.59628725       3.87857246       0.03923434    -609.20920812      -0.18122325      -0.34313954       0.90564025
H        8.19965267       5.75731039       2.69498134       0.03890634    -609.25091162       0.22237697      -0.95101986      -0.48515732
H        2.06363916      13.01207829       2.76836514       0.04071764    -609.21125485      -0.46705357      -0.18444707      -0.06482293
H        7.75188875       7.02545881       3.63813829       0.04268574    -609.20401508       0.70586486       1.68346513       1.29508067
H        1.02585864      -0.93605393       2.25690055       0.04537092    -609.19417828       0.29274633       1.08984278       1.19972284
H       11.91320419      12.59332657       2.70585322       0.00471094    -609.44599215      -0.86565112       0.50402780      -0.87247937
H        6.46196127       5.15357256       4.48244381       0.01140187    -609.37136819      -0.55595934       0.06802052      -1.22766595
H       12.42100525      13.27103901       4.18370819       0.00855299    -609.39884108       0.11198656       0.52520477      -0.26466593
H        5.63870192       5.21051025       2.69208860       0.04533910    -609.23911744       1.30909059       0.75442012       2.96671250
H        5.62018776       6.53869486       3.87500668       0.01033770    -609.42018182      -0.06155877      -0.87404669      -0.08894147
H       11.51986980      -0.56964833       4.18589211       0.03076550    -609.32016143       1.44938841       0.75339557      -1.40131838
96
Lattice="12.299111366271973 0.0 0.0 0.397482693195343 12.292691230773926 0.0 0.0 0.0 12.580405235290527" Properties=species:S:1:pos:R:3:initial_charges:R:1:energies:R:1:forces:R:3 original_dataset_index=383 energy=-58452.93989367445 pbc="F F F"
Pb       9.70343399       9.34819317      12.41137314      -0.13160197    -607.41010118      -0.10226254      -0.08389664      -0.11062964
Pb       2.73717475       3.08746600      12.31224346      -0.12514900    -607.25729725       0.13563712       0.01552448      -0.08661816
Pb       3.49296904       8.79734516      12.59230137      -0.12980561    -607.30290492      -0.12305562      -0.10404115       0.29610510
Pb       8.63149548       3.54451513      12.77397823      -0.14132454    -607.15733745      -0.34508775      -0.47434022      -0.21893981
Pb      10.16303635       8.86779213       6.14749622      -0.12042017    -607.13927488       0.18147682      -0.17038040       0.59102738
Pb       2.93254995       3.26539183       6.34672499      -0.14464526    -607.45296763      -0.20513729      -0.69551580       0.18443457
Pb       9.26689434       2.68750334       6.53443575      -0.15318099    -607.54430618      -0.04006071       0.46139183       0.12130819
Pb       3.22249866       9.25994110       6.25808954      -0.12855166    -607.30963434      -0.03140979       0.42601052       0.02424427
I        9.53610325       8.66508198       9.39263344       0.14283422    -608.42052376      -0.00172936       0.11399218      -0.33694867
I        3.83657503       3.37641406       9.34843636       0.13160458    -608.45835007      -0.26234377      -0.41191430       0.32198638
I        9.39359951       2.76536727       3.29197931       0.13532805    -608.52589030       0.16982311       0.01398902       0.12136275
I        4.28027105       9.18887424       3.08022928       0.14140552    -608.54642952      -0.12572990      -0.07307647       0.06970954
I        2.89871311       2.73726487       3.06549454       0.13528991    -608.58439371      -0.69910694       0.90234255      -0.23673653
I        9.50591183       9.52341747       3.01753759       0.12431864    -608.58510208      -0.07458537      -0.12610569       0.18230135
I        3.74398112       9.04399014       9.44309521       0.12340197    -608.54173328      -0.02246015       0.09483515      -0.40816708
I        8.95198059       3.47150421       9.75506878       0.14517526    -608.55093767      -0.24113584      -0.04687888      -0.35528668
I       -0.56842303       1.99873424      12.77469921       0.10528079    -608.25101422       0.13201902       1.13794132       0.61151983
I        6.54109287       8.98503590      12.08874035       0.14361058    -608.37761907       0.35508059      -0.34979591       0.03221501
I       10.25722885       6.06667948      -0.05536782       0.12461805    -608.48732914       0.09177963       0.46395538      -0.12211185
I        4.67114639      12.51467896      -0.05967804       0.11328902    -608.44978836      -0.34910726      -0.20044826       0.11282653
I       12.77120304      10.08058453       7.31313515       0.13536270    -608.48826867       0.11718848      -0.26530719      -0.27506154
I        6.17787743       3.08835649       6.15894508       0.13653702    -608.43324292      -0.09714016       0.63585491       0.45772385
I        3.39005017       6.17314339       5.80125141       0.12341981    -608.47516305       0.25665956       0.67148105      -0.14279418
I        9.15756798      -0.27866396       6.15675354       0.12965019    -608.34841898      -0.10879071      -0.41268509      -0.14246835
I       12.91170502      10.06879997       0.02201697       0.13933714    -608.62121533      -0.14576732       0.01401793       0.25766982
I        5.77139711       4.24363232       0.42634070       0.13480306    -608.59018292      -0.71619928       0.26008480      -0.06508620
I        1.89153337       6.06020975      12.02837372       0.09850310    -607.99967629       0.03748065      -0.29599979       2.95097530
I        8.06184959       0.19964916      12.07577324       0.12519147    -608.44833136       0.10394823      -0.04030530       0.12785829
I       -0.04376715       2.35574389       6.86803341       0.13663828    -608.50738213       0.17866294      -0.54920881      -0.32009202
I        6.74390507       9.37037945       6.55775928       0.08222752    -608.25045145      -0.17972958      -0.27818957      -0.12563984
I        9.69746208       5.78337240       6.05852461       0.14118508    -608.43576331      -0.03011894       0.44944032       0.07272475
I        3.94175196      12.42921448       6.38242674       0.14796266    -608.46836621      -0.04675813      -0.45937861       0.07049286
N        6.61585569       6.26557922       3.97409797      -0.08964000    -609.66729269       1.24619718       2.88931105       0.54966765
N       12.13540649      11.82818508       3.62035203      -0.13579650    -609.73930837       0.88620126       0.89764364       1.50116024
N        0.97607344       5.20027685       8.04598522      -0.10025788    -609.52215930      -1.76566661       1.80274584       0.20197980
N        5.47103882      -0.46746567       9.29574203      -0.14126046    -609.88593288      -1.66207108      -2.09391186      -0.27112601
N        6.38470221       6.70081711       8.92057133      -0.07850549    -609.62639501      -0.42065745       1.40221802       1.19739260
N        0.71378380       0.42259565      10.28916359      -0.06334300    -609.81581349      -0.28579048       0.41839210       0.10159163
N       12.39000130       5.00472593       2.54923224      -0.15603206    -609.88657637       0.85042664       0.07418292       0.93768275
N        6.79128695      12.02400780       3.30371356      -0.07928218    -609.75407081       0.34154419      -1.80336501       0.03092048
C        6.04241323       5.62456608       9.52904797      -0.04738601    -609.86196818      -0.37003609      -0.98203356       0.32190313
C       11.97480774      12.60327148      10.10119534      -0.12135725    -609.89172294      -0.41622989       0.74463753      -1.90881684
C        0.51026344       6.22822189       3.26031041      -0.10870542    -610.06997748      -0.91255759       1.95507718       0.51115472
C        5.82206869       1.10610163       3.42074943      -0.12266570    -609.66470380       4.65866811      -0.19268865      -2.09605025
C        6.22996426       5.12976313       3.62127662      -0.06001448    -609.87155028      -2.49680788      -1.85532855       0.96946477
C        0.99559343      -0.30366153       3.37333775      -0.11151582    -609.98785382       0.00004001      -0.83184555       1.82410841
C       11.97884655       5.50494814       8.87805653      -0.12387724    -609.71659844       2.06647633      -3.37548464       0.53270116
C        6.98891115      12.47509289       8.63471127      -0.11133763    -610.08356872       1.07758094      -0.54011001      -0.79056228
H       14.05214024       6.07322121       9.69847488       0.07486666    -608.69022751       1.52643860       1.34493634      -0.67880458
H        6.93737459      12.32473469       7.54134130       0.02652287    -609.25173071      -0.22118632      -0.15281041       0.42849643
H       11.20748425       4.72862387       8.67474556       0.07170586    -609.09287512       1.15072938      -0.18038996       0.00558887
H        6.90618467      13.53198051       8.78634930       0.03730369    -609.22085491       0.08542130       0.78143474       0.35121904
H       -0.15187111       5.57315540       9.96755219       0.09843709    -608.80845793       1.60518890      -1.75083000       0.35838882
H        7.96038389      12.07762527       8.98632717       0.04007395    -609.20530659      -0.50229113       0.19947873       0.05316114
H        0.43980584       6.02152014       4.34382486       0.03047098    -609.25579420       0.27945319       0.18905890      -0.35605220
H        4.78014183       1.33082175       3.45473790       0.08110185    -608.85033576      -0.67600493      -0.56997670       0.73134757
H       -0.16448143       7.11480999       3.02480435       0.04637499    -609.16913845       0.53018584      -1.15604942       0.14041484
H        6.19702482       1.43792760       2.35438204       0.09463491    -608.77976061      -1.05641170       0.05882150       1.34994740
H       13.81848431       6.52529430       2.94590306       0.04230554    -609.19634964      -0.04700820      -0.32033642       0.15138524
H        6.51712465       1.76636481       4.04632807       0.07189811    -608.86578085      -1.33992406      -1.28197944      -0.48650749
H        6.54739666      12.45626450      12.24336147       0.12518518    -608.98369425       0.23414837       0.06375429       0.23990010
H        5.34149551      -0.25836346      10.30193329       0.00754297    -609.47542320       0.16799900       0.13767992       0.01291263
H        1.73041499       5.92806864       8.01151848       0.05613170    -608.93113331      -1.20527025      -0.27207322       0.41479052
H        4.56798267      -0.17652240       8.82835960       0.00738387    -609.44339181       0.55837699      -0.07809422       0.12639740
H        0.67411387       5.09351397       7.06843090       0.05082919    -609.05881304      -0.29043042       0.17595237       0.31881075
H        5.41223907      -1.56406021       9.23275375       0.01785923    -609.32792978       0.34906362       1.91776774       0.07244767
H       12.22333527       5.23521948       1.54388583      -0.00653330    -609.38988430      -0.13595837      -0.56860649       0.29074247
H        7.61369848      10.16223145       5.35568333       0.16765745    -608.81417410      -0.16806611       0.19988644       0.00064003
H       -0.65780604       4.48926306       3.04988432      -0.00047946    -609.37306595      -0.64518963       0.40452447      -0.54650782
H        7.09759760      11.17829990       3.86034203       0.08494385    -609.07022710       0.92451005       2.43428222       1.97360424
H       13.19895649       4.38101244       2.73861718      -0.00054414    -609.37652297       0.35684488      -0.54878510      -0.91230273
H        6.22702551      11.27040672       2.96219921       0.06753469    -609.10931726      -2.09203502       0.51424352      -2.19599343
H       -1.36112046       3.42674947      13.47349548       0.18069337    -608.85512589       0.86081806      -1.11387908      -0.36501894
H        6.24239540       7.70461607       9.36193466       0.07890090    -609.02242362       0.25373403      -2.14798500      -0.85983898
H       10.09574986       5.93160963      15.49687290       0.05803035    -609.06687899      -0.32778860       0.24109509       0.08188813
H        1.39056242      11.80962372      10.60351658       0.03772847    -609.34456416       0.99317244      -0.69029154       0.06784002
H        1.19430375       0.70357656       9.42573929       0.04693608    -609.35593267      -0.17518673      -0.22926088       0.31071660
H        6.80294943       6.59035492       8.00825405       0.06318295    -609.10322917       0.39482355       0.27855885      -0.40832799
H        5.53188944       5.58941364      10.49415302       0.07107209    -609.17155593       0.27043714       0.66557697       0.08334052
H       11.26525211      -0.02210409       9.07065392       0.06804991    -609.02846489       0.16477473       0.01139982       0.81342272
H       14.67370129       6.56279421      -2.66216040       0.06852861    -609.00582239      -1.15557521      -0.83836887      -1.74997372
H       11.51547623      13.55858421      10.27912521       0.05726554    -609.05207177      -0.32548998       0.84985576      -0.45341896
H        6.15793848       4.60784817       9.11036491       0.07153492    -609.19603104       0.47818035       0.76354192      -0.29033635
H       11.48485088      12.02440357      10.85179138       0.05400321    -609.08734160      -0.03699127      -1.09187728       0.55702628
H        9.89981365       6.65052462       3.04682660       0.06812412    -608.98053897       0.03443467      -0.21103838      -0.03645982
H        1.49502420      -1.08699608       3.97847295       0.04974496    -609.18687630      -0.12506077       0.51881047      -0.11516171
H        5.28095007       4.81007385       3.99749064       0.06131200    -609.10807721      -0.99397602       0.04375742      -0.09422169
H        1.77774525      13.01541424       3.69608498       0.05412360    -609.16731069      -0.85311253      -1.27769820      -0.51641129
H        6.65965366       4.35770798       3.04131198       0.07172605    -609.12143822       1.53590005      -0.17672766      -0.53163548
H        1.20450699      -0.56860507       2.33803868       0.05031446    -609.19602222      -0.18530068       0.30736914      -0.19414005
H       11.83683205      12.70126247       4.20639277       0.02454775    -609.33650362       0.00534135      -1.71037322      -1.26226187
H        7.57784033       6.51595163       3.76193190       0.06226359    -609.10956806       0.17892613       0.51476491      -0.00198535
H       11.64376831      10.93104267       4.04313993       0.03158229    -609.29977261       1.46216283       1.64247551      -0.68919621
H       11.25877190       6.15371561       9.27332497       0.14539567    -608.82958760      -1.67321009       4.01644058      -2.04093276
H        6.04164457       6.99575329       4.51257229       0.07473648    -609.04333254       0.55866462      -1.41302319      -0.79912328
H       11.46173573      -0.43197918       2.65617657       0.01000256    -609.40737728      -1.33761788       0.37215448      -0.62289364
